** Aetheris AETHERIS-FEA-M5 verification deck
** Conventional C3D8 full-cell approximation; native Cut cells are omitted, never exported as full bricks.
*HEADING
PlateHoleFineAnalysis
*NODE
1, 0, 0, 0
2, 0.008333333333333333, 0, 0
3, 0.016666666666666666, 0, 0
4, 0.025, 0, 0
5, 0.03333333333333333, 0, 0
6, 0.041666666666666664, 0, 0
7, 0.05, 0, 0
8, 0.058333333333333334, 0, 0
9, 0.06666666666666667, 0, 0
10, 0.075, 0, 0
11, 0.08333333333333333, 0, 0
12, 0.09166666666666666, 0, 0
13, 0.1, 0, 0
14, 0.10833333333333334, 0, 0
15, 0.11666666666666667, 0, 0
16, 0.125, 0, 0
17, 0.13333333333333333, 0, 0
18, 0.14166666666666666, 0, 0
19, 0.15, 0, 0
20, 0.15833333333333333, 0, 0
21, 0.16666666666666666, 0, 0
22, 0.175, 0, 0
23, 0.18333333333333332, 0, 0
24, 0.19166666666666665, 0, 0
25, 0.2, 0, 0
26, 0, 0.008333333333333333, 0
27, 0.008333333333333333, 0.008333333333333333, 0
28, 0.016666666666666666, 0.008333333333333333, 0
29, 0.025, 0.008333333333333333, 0
30, 0.03333333333333333, 0.008333333333333333, 0
31, 0.041666666666666664, 0.008333333333333333, 0
32, 0.05, 0.008333333333333333, 0
33, 0.058333333333333334, 0.008333333333333333, 0
34, 0.06666666666666667, 0.008333333333333333, 0
35, 0.075, 0.008333333333333333, 0
36, 0.08333333333333333, 0.008333333333333333, 0
37, 0.09166666666666666, 0.008333333333333333, 0
38, 0.1, 0.008333333333333333, 0
39, 0.10833333333333334, 0.008333333333333333, 0
40, 0.11666666666666667, 0.008333333333333333, 0
41, 0.125, 0.008333333333333333, 0
42, 0.13333333333333333, 0.008333333333333333, 0
43, 0.14166666666666666, 0.008333333333333333, 0
44, 0.15, 0.008333333333333333, 0
45, 0.15833333333333333, 0.008333333333333333, 0
46, 0.16666666666666666, 0.008333333333333333, 0
47, 0.175, 0.008333333333333333, 0
48, 0.18333333333333332, 0.008333333333333333, 0
49, 0.19166666666666665, 0.008333333333333333, 0
50, 0.2, 0.008333333333333333, 0
51, 0, 0.016666666666666666, 0
52, 0.008333333333333333, 0.016666666666666666, 0
53, 0.016666666666666666, 0.016666666666666666, 0
54, 0.025, 0.016666666666666666, 0
55, 0.03333333333333333, 0.016666666666666666, 0
56, 0.041666666666666664, 0.016666666666666666, 0
57, 0.05, 0.016666666666666666, 0
58, 0.058333333333333334, 0.016666666666666666, 0
59, 0.06666666666666667, 0.016666666666666666, 0
60, 0.075, 0.016666666666666666, 0
61, 0.08333333333333333, 0.016666666666666666, 0
62, 0.09166666666666666, 0.016666666666666666, 0
63, 0.1, 0.016666666666666666, 0
64, 0.10833333333333334, 0.016666666666666666, 0
65, 0.11666666666666667, 0.016666666666666666, 0
66, 0.125, 0.016666666666666666, 0
67, 0.13333333333333333, 0.016666666666666666, 0
68, 0.14166666666666666, 0.016666666666666666, 0
69, 0.15, 0.016666666666666666, 0
70, 0.15833333333333333, 0.016666666666666666, 0
71, 0.16666666666666666, 0.016666666666666666, 0
72, 0.175, 0.016666666666666666, 0
73, 0.18333333333333332, 0.016666666666666666, 0
74, 0.19166666666666665, 0.016666666666666666, 0
75, 0.2, 0.016666666666666666, 0
76, 0, 0.025, 0
77, 0.008333333333333333, 0.025, 0
78, 0.016666666666666666, 0.025, 0
79, 0.025, 0.025, 0
80, 0.03333333333333333, 0.025, 0
81, 0.041666666666666664, 0.025, 0
82, 0.05, 0.025, 0
83, 0.058333333333333334, 0.025, 0
84, 0.06666666666666667, 0.025, 0
85, 0.075, 0.025, 0
86, 0.08333333333333333, 0.025, 0
87, 0.09166666666666666, 0.025, 0
88, 0.1, 0.025, 0
89, 0.10833333333333334, 0.025, 0
90, 0.11666666666666667, 0.025, 0
91, 0.125, 0.025, 0
92, 0.13333333333333333, 0.025, 0
93, 0.14166666666666666, 0.025, 0
94, 0.15, 0.025, 0
95, 0.15833333333333333, 0.025, 0
96, 0.16666666666666666, 0.025, 0
97, 0.175, 0.025, 0
98, 0.18333333333333332, 0.025, 0
99, 0.19166666666666665, 0.025, 0
100, 0.2, 0.025, 0
101, 0, 0.03333333333333333, 0
102, 0.008333333333333333, 0.03333333333333333, 0
103, 0.016666666666666666, 0.03333333333333333, 0
104, 0.025, 0.03333333333333333, 0
105, 0.03333333333333333, 0.03333333333333333, 0
106, 0.041666666666666664, 0.03333333333333333, 0
107, 0.05, 0.03333333333333333, 0
108, 0.058333333333333334, 0.03333333333333333, 0
109, 0.06666666666666667, 0.03333333333333333, 0
110, 0.075, 0.03333333333333333, 0
111, 0.08333333333333333, 0.03333333333333333, 0
112, 0.09166666666666666, 0.03333333333333333, 0
113, 0.1, 0.03333333333333333, 0
114, 0.10833333333333334, 0.03333333333333333, 0
115, 0.11666666666666667, 0.03333333333333333, 0
116, 0.125, 0.03333333333333333, 0
117, 0.13333333333333333, 0.03333333333333333, 0
118, 0.14166666666666666, 0.03333333333333333, 0
119, 0.15, 0.03333333333333333, 0
120, 0.15833333333333333, 0.03333333333333333, 0
121, 0.16666666666666666, 0.03333333333333333, 0
122, 0.175, 0.03333333333333333, 0
123, 0.18333333333333332, 0.03333333333333333, 0
124, 0.19166666666666665, 0.03333333333333333, 0
125, 0.2, 0.03333333333333333, 0
126, 0, 0.041666666666666664, 0
127, 0.008333333333333333, 0.041666666666666664, 0
128, 0.016666666666666666, 0.041666666666666664, 0
129, 0.025, 0.041666666666666664, 0
130, 0.03333333333333333, 0.041666666666666664, 0
131, 0.041666666666666664, 0.041666666666666664, 0
132, 0.05, 0.041666666666666664, 0
133, 0.058333333333333334, 0.041666666666666664, 0
134, 0.06666666666666667, 0.041666666666666664, 0
135, 0.075, 0.041666666666666664, 0
136, 0.08333333333333333, 0.041666666666666664, 0
137, 0.09166666666666666, 0.041666666666666664, 0
138, 0.10833333333333334, 0.041666666666666664, 0
139, 0.11666666666666667, 0.041666666666666664, 0
140, 0.125, 0.041666666666666664, 0
141, 0.13333333333333333, 0.041666666666666664, 0
142, 0.14166666666666666, 0.041666666666666664, 0
143, 0.15, 0.041666666666666664, 0
144, 0.15833333333333333, 0.041666666666666664, 0
145, 0.16666666666666666, 0.041666666666666664, 0
146, 0.175, 0.041666666666666664, 0
147, 0.18333333333333332, 0.041666666666666664, 0
148, 0.19166666666666665, 0.041666666666666664, 0
149, 0.2, 0.041666666666666664, 0
150, 0, 0.05, 0
151, 0.008333333333333333, 0.05, 0
152, 0.016666666666666666, 0.05, 0
153, 0.025, 0.05, 0
154, 0.03333333333333333, 0.05, 0
155, 0.041666666666666664, 0.05, 0
156, 0.05, 0.05, 0
157, 0.058333333333333334, 0.05, 0
158, 0.06666666666666667, 0.05, 0
159, 0.075, 0.05, 0
160, 0.08333333333333333, 0.05, 0
161, 0.11666666666666667, 0.05, 0
162, 0.125, 0.05, 0
163, 0.13333333333333333, 0.05, 0
164, 0.14166666666666666, 0.05, 0
165, 0.15, 0.05, 0
166, 0.15833333333333333, 0.05, 0
167, 0.16666666666666666, 0.05, 0
168, 0.175, 0.05, 0
169, 0.18333333333333332, 0.05, 0
170, 0.19166666666666665, 0.05, 0
171, 0.2, 0.05, 0
172, 0, 0.058333333333333334, 0
173, 0.008333333333333333, 0.058333333333333334, 0
174, 0.016666666666666666, 0.058333333333333334, 0
175, 0.025, 0.058333333333333334, 0
176, 0.03333333333333333, 0.058333333333333334, 0
177, 0.041666666666666664, 0.058333333333333334, 0
178, 0.05, 0.058333333333333334, 0
179, 0.058333333333333334, 0.058333333333333334, 0
180, 0.06666666666666667, 0.058333333333333334, 0
181, 0.075, 0.058333333333333334, 0
182, 0.08333333333333333, 0.058333333333333334, 0
183, 0.09166666666666666, 0.058333333333333334, 0
184, 0.10833333333333334, 0.058333333333333334, 0
185, 0.11666666666666667, 0.058333333333333334, 0
186, 0.125, 0.058333333333333334, 0
187, 0.13333333333333333, 0.058333333333333334, 0
188, 0.14166666666666666, 0.058333333333333334, 0
189, 0.15, 0.058333333333333334, 0
190, 0.15833333333333333, 0.058333333333333334, 0
191, 0.16666666666666666, 0.058333333333333334, 0
192, 0.175, 0.058333333333333334, 0
193, 0.18333333333333332, 0.058333333333333334, 0
194, 0.19166666666666665, 0.058333333333333334, 0
195, 0.2, 0.058333333333333334, 0
196, 0, 0.06666666666666667, 0
197, 0.008333333333333333, 0.06666666666666667, 0
198, 0.016666666666666666, 0.06666666666666667, 0
199, 0.025, 0.06666666666666667, 0
200, 0.03333333333333333, 0.06666666666666667, 0
201, 0.041666666666666664, 0.06666666666666667, 0
202, 0.05, 0.06666666666666667, 0
203, 0.058333333333333334, 0.06666666666666667, 0
204, 0.06666666666666667, 0.06666666666666667, 0
205, 0.075, 0.06666666666666667, 0
206, 0.08333333333333333, 0.06666666666666667, 0
207, 0.09166666666666666, 0.06666666666666667, 0
208, 0.1, 0.06666666666666667, 0
209, 0.10833333333333334, 0.06666666666666667, 0
210, 0.11666666666666667, 0.06666666666666667, 0
211, 0.125, 0.06666666666666667, 0
212, 0.13333333333333333, 0.06666666666666667, 0
213, 0.14166666666666666, 0.06666666666666667, 0
214, 0.15, 0.06666666666666667, 0
215, 0.15833333333333333, 0.06666666666666667, 0
216, 0.16666666666666666, 0.06666666666666667, 0
217, 0.175, 0.06666666666666667, 0
218, 0.18333333333333332, 0.06666666666666667, 0
219, 0.19166666666666665, 0.06666666666666667, 0
220, 0.2, 0.06666666666666667, 0
221, 0, 0.075, 0
222, 0.008333333333333333, 0.075, 0
223, 0.016666666666666666, 0.075, 0
224, 0.025, 0.075, 0
225, 0.03333333333333333, 0.075, 0
226, 0.041666666666666664, 0.075, 0
227, 0.05, 0.075, 0
228, 0.058333333333333334, 0.075, 0
229, 0.06666666666666667, 0.075, 0
230, 0.075, 0.075, 0
231, 0.08333333333333333, 0.075, 0
232, 0.09166666666666666, 0.075, 0
233, 0.1, 0.075, 0
234, 0.10833333333333334, 0.075, 0
235, 0.11666666666666667, 0.075, 0
236, 0.125, 0.075, 0
237, 0.13333333333333333, 0.075, 0
238, 0.14166666666666666, 0.075, 0
239, 0.15, 0.075, 0
240, 0.15833333333333333, 0.075, 0
241, 0.16666666666666666, 0.075, 0
242, 0.175, 0.075, 0
243, 0.18333333333333332, 0.075, 0
244, 0.19166666666666665, 0.075, 0
245, 0.2, 0.075, 0
246, 0, 0.08333333333333333, 0
247, 0.008333333333333333, 0.08333333333333333, 0
248, 0.016666666666666666, 0.08333333333333333, 0
249, 0.025, 0.08333333333333333, 0
250, 0.03333333333333333, 0.08333333333333333, 0
251, 0.041666666666666664, 0.08333333333333333, 0
252, 0.05, 0.08333333333333333, 0
253, 0.058333333333333334, 0.08333333333333333, 0
254, 0.06666666666666667, 0.08333333333333333, 0
255, 0.075, 0.08333333333333333, 0
256, 0.08333333333333333, 0.08333333333333333, 0
257, 0.09166666666666666, 0.08333333333333333, 0
258, 0.1, 0.08333333333333333, 0
259, 0.10833333333333334, 0.08333333333333333, 0
260, 0.11666666666666667, 0.08333333333333333, 0
261, 0.125, 0.08333333333333333, 0
262, 0.13333333333333333, 0.08333333333333333, 0
263, 0.14166666666666666, 0.08333333333333333, 0
264, 0.15, 0.08333333333333333, 0
265, 0.15833333333333333, 0.08333333333333333, 0
266, 0.16666666666666666, 0.08333333333333333, 0
267, 0.175, 0.08333333333333333, 0
268, 0.18333333333333332, 0.08333333333333333, 0
269, 0.19166666666666665, 0.08333333333333333, 0
270, 0.2, 0.08333333333333333, 0
271, 0, 0.09166666666666666, 0
272, 0.008333333333333333, 0.09166666666666666, 0
273, 0.016666666666666666, 0.09166666666666666, 0
274, 0.025, 0.09166666666666666, 0
275, 0.03333333333333333, 0.09166666666666666, 0
276, 0.041666666666666664, 0.09166666666666666, 0
277, 0.05, 0.09166666666666666, 0
278, 0.058333333333333334, 0.09166666666666666, 0
279, 0.06666666666666667, 0.09166666666666666, 0
280, 0.075, 0.09166666666666666, 0
281, 0.08333333333333333, 0.09166666666666666, 0
282, 0.09166666666666666, 0.09166666666666666, 0
283, 0.1, 0.09166666666666666, 0
284, 0.10833333333333334, 0.09166666666666666, 0
285, 0.11666666666666667, 0.09166666666666666, 0
286, 0.125, 0.09166666666666666, 0
287, 0.13333333333333333, 0.09166666666666666, 0
288, 0.14166666666666666, 0.09166666666666666, 0
289, 0.15, 0.09166666666666666, 0
290, 0.15833333333333333, 0.09166666666666666, 0
291, 0.16666666666666666, 0.09166666666666666, 0
292, 0.175, 0.09166666666666666, 0
293, 0.18333333333333332, 0.09166666666666666, 0
294, 0.19166666666666665, 0.09166666666666666, 0
295, 0.2, 0.09166666666666666, 0
296, 0, 0.1, 0
297, 0.008333333333333333, 0.1, 0
298, 0.016666666666666666, 0.1, 0
299, 0.025, 0.1, 0
300, 0.03333333333333333, 0.1, 0
301, 0.041666666666666664, 0.1, 0
302, 0.05, 0.1, 0
303, 0.058333333333333334, 0.1, 0
304, 0.06666666666666667, 0.1, 0
305, 0.075, 0.1, 0
306, 0.08333333333333333, 0.1, 0
307, 0.09166666666666666, 0.1, 0
308, 0.1, 0.1, 0
309, 0.10833333333333334, 0.1, 0
310, 0.11666666666666667, 0.1, 0
311, 0.125, 0.1, 0
312, 0.13333333333333333, 0.1, 0
313, 0.14166666666666666, 0.1, 0
314, 0.15, 0.1, 0
315, 0.15833333333333333, 0.1, 0
316, 0.16666666666666666, 0.1, 0
317, 0.175, 0.1, 0
318, 0.18333333333333332, 0.1, 0
319, 0.19166666666666665, 0.1, 0
320, 0.2, 0.1, 0
321, 0, 0, 0.005
322, 0.008333333333333333, 0, 0.005
323, 0.016666666666666666, 0, 0.005
324, 0.025, 0, 0.005
325, 0.03333333333333333, 0, 0.005
326, 0.041666666666666664, 0, 0.005
327, 0.05, 0, 0.005
328, 0.058333333333333334, 0, 0.005
329, 0.06666666666666667, 0, 0.005
330, 0.075, 0, 0.005
331, 0.08333333333333333, 0, 0.005
332, 0.09166666666666666, 0, 0.005
333, 0.1, 0, 0.005
334, 0.10833333333333334, 0, 0.005
335, 0.11666666666666667, 0, 0.005
336, 0.125, 0, 0.005
337, 0.13333333333333333, 0, 0.005
338, 0.14166666666666666, 0, 0.005
339, 0.15, 0, 0.005
340, 0.15833333333333333, 0, 0.005
341, 0.16666666666666666, 0, 0.005
342, 0.175, 0, 0.005
343, 0.18333333333333332, 0, 0.005
344, 0.19166666666666665, 0, 0.005
345, 0.2, 0, 0.005
346, 0, 0.008333333333333333, 0.005
347, 0.008333333333333333, 0.008333333333333333, 0.005
348, 0.016666666666666666, 0.008333333333333333, 0.005
349, 0.025, 0.008333333333333333, 0.005
350, 0.03333333333333333, 0.008333333333333333, 0.005
351, 0.041666666666666664, 0.008333333333333333, 0.005
352, 0.05, 0.008333333333333333, 0.005
353, 0.058333333333333334, 0.008333333333333333, 0.005
354, 0.06666666666666667, 0.008333333333333333, 0.005
355, 0.075, 0.008333333333333333, 0.005
356, 0.08333333333333333, 0.008333333333333333, 0.005
357, 0.09166666666666666, 0.008333333333333333, 0.005
358, 0.1, 0.008333333333333333, 0.005
359, 0.10833333333333334, 0.008333333333333333, 0.005
360, 0.11666666666666667, 0.008333333333333333, 0.005
361, 0.125, 0.008333333333333333, 0.005
362, 0.13333333333333333, 0.008333333333333333, 0.005
363, 0.14166666666666666, 0.008333333333333333, 0.005
364, 0.15, 0.008333333333333333, 0.005
365, 0.15833333333333333, 0.008333333333333333, 0.005
366, 0.16666666666666666, 0.008333333333333333, 0.005
367, 0.175, 0.008333333333333333, 0.005
368, 0.18333333333333332, 0.008333333333333333, 0.005
369, 0.19166666666666665, 0.008333333333333333, 0.005
370, 0.2, 0.008333333333333333, 0.005
371, 0, 0.016666666666666666, 0.005
372, 0.008333333333333333, 0.016666666666666666, 0.005
373, 0.016666666666666666, 0.016666666666666666, 0.005
374, 0.025, 0.016666666666666666, 0.005
375, 0.03333333333333333, 0.016666666666666666, 0.005
376, 0.041666666666666664, 0.016666666666666666, 0.005
377, 0.05, 0.016666666666666666, 0.005
378, 0.058333333333333334, 0.016666666666666666, 0.005
379, 0.06666666666666667, 0.016666666666666666, 0.005
380, 0.075, 0.016666666666666666, 0.005
381, 0.08333333333333333, 0.016666666666666666, 0.005
382, 0.09166666666666666, 0.016666666666666666, 0.005
383, 0.1, 0.016666666666666666, 0.005
384, 0.10833333333333334, 0.016666666666666666, 0.005
385, 0.11666666666666667, 0.016666666666666666, 0.005
386, 0.125, 0.016666666666666666, 0.005
387, 0.13333333333333333, 0.016666666666666666, 0.005
388, 0.14166666666666666, 0.016666666666666666, 0.005
389, 0.15, 0.016666666666666666, 0.005
390, 0.15833333333333333, 0.016666666666666666, 0.005
391, 0.16666666666666666, 0.016666666666666666, 0.005
392, 0.175, 0.016666666666666666, 0.005
393, 0.18333333333333332, 0.016666666666666666, 0.005
394, 0.19166666666666665, 0.016666666666666666, 0.005
395, 0.2, 0.016666666666666666, 0.005
396, 0, 0.025, 0.005
397, 0.008333333333333333, 0.025, 0.005
398, 0.016666666666666666, 0.025, 0.005
399, 0.025, 0.025, 0.005
400, 0.03333333333333333, 0.025, 0.005
401, 0.041666666666666664, 0.025, 0.005
402, 0.05, 0.025, 0.005
403, 0.058333333333333334, 0.025, 0.005
404, 0.06666666666666667, 0.025, 0.005
405, 0.075, 0.025, 0.005
406, 0.08333333333333333, 0.025, 0.005
407, 0.09166666666666666, 0.025, 0.005
408, 0.1, 0.025, 0.005
409, 0.10833333333333334, 0.025, 0.005
410, 0.11666666666666667, 0.025, 0.005
411, 0.125, 0.025, 0.005
412, 0.13333333333333333, 0.025, 0.005
413, 0.14166666666666666, 0.025, 0.005
414, 0.15, 0.025, 0.005
415, 0.15833333333333333, 0.025, 0.005
416, 0.16666666666666666, 0.025, 0.005
417, 0.175, 0.025, 0.005
418, 0.18333333333333332, 0.025, 0.005
419, 0.19166666666666665, 0.025, 0.005
420, 0.2, 0.025, 0.005
421, 0, 0.03333333333333333, 0.005
422, 0.008333333333333333, 0.03333333333333333, 0.005
423, 0.016666666666666666, 0.03333333333333333, 0.005
424, 0.025, 0.03333333333333333, 0.005
425, 0.03333333333333333, 0.03333333333333333, 0.005
426, 0.041666666666666664, 0.03333333333333333, 0.005
427, 0.05, 0.03333333333333333, 0.005
428, 0.058333333333333334, 0.03333333333333333, 0.005
429, 0.06666666666666667, 0.03333333333333333, 0.005
430, 0.075, 0.03333333333333333, 0.005
431, 0.08333333333333333, 0.03333333333333333, 0.005
432, 0.09166666666666666, 0.03333333333333333, 0.005
433, 0.1, 0.03333333333333333, 0.005
434, 0.10833333333333334, 0.03333333333333333, 0.005
435, 0.11666666666666667, 0.03333333333333333, 0.005
436, 0.125, 0.03333333333333333, 0.005
437, 0.13333333333333333, 0.03333333333333333, 0.005
438, 0.14166666666666666, 0.03333333333333333, 0.005
439, 0.15, 0.03333333333333333, 0.005
440, 0.15833333333333333, 0.03333333333333333, 0.005
441, 0.16666666666666666, 0.03333333333333333, 0.005
442, 0.175, 0.03333333333333333, 0.005
443, 0.18333333333333332, 0.03333333333333333, 0.005
444, 0.19166666666666665, 0.03333333333333333, 0.005
445, 0.2, 0.03333333333333333, 0.005
446, 0, 0.041666666666666664, 0.005
447, 0.008333333333333333, 0.041666666666666664, 0.005
448, 0.016666666666666666, 0.041666666666666664, 0.005
449, 0.025, 0.041666666666666664, 0.005
450, 0.03333333333333333, 0.041666666666666664, 0.005
451, 0.041666666666666664, 0.041666666666666664, 0.005
452, 0.05, 0.041666666666666664, 0.005
453, 0.058333333333333334, 0.041666666666666664, 0.005
454, 0.06666666666666667, 0.041666666666666664, 0.005
455, 0.075, 0.041666666666666664, 0.005
456, 0.08333333333333333, 0.041666666666666664, 0.005
457, 0.09166666666666666, 0.041666666666666664, 0.005
458, 0.10833333333333334, 0.041666666666666664, 0.005
459, 0.11666666666666667, 0.041666666666666664, 0.005
460, 0.125, 0.041666666666666664, 0.005
461, 0.13333333333333333, 0.041666666666666664, 0.005
462, 0.14166666666666666, 0.041666666666666664, 0.005
463, 0.15, 0.041666666666666664, 0.005
464, 0.15833333333333333, 0.041666666666666664, 0.005
465, 0.16666666666666666, 0.041666666666666664, 0.005
466, 0.175, 0.041666666666666664, 0.005
467, 0.18333333333333332, 0.041666666666666664, 0.005
468, 0.19166666666666665, 0.041666666666666664, 0.005
469, 0.2, 0.041666666666666664, 0.005
470, 0, 0.05, 0.005
471, 0.008333333333333333, 0.05, 0.005
472, 0.016666666666666666, 0.05, 0.005
473, 0.025, 0.05, 0.005
474, 0.03333333333333333, 0.05, 0.005
475, 0.041666666666666664, 0.05, 0.005
476, 0.05, 0.05, 0.005
477, 0.058333333333333334, 0.05, 0.005
478, 0.06666666666666667, 0.05, 0.005
479, 0.075, 0.05, 0.005
480, 0.08333333333333333, 0.05, 0.005
481, 0.11666666666666667, 0.05, 0.005
482, 0.125, 0.05, 0.005
483, 0.13333333333333333, 0.05, 0.005
484, 0.14166666666666666, 0.05, 0.005
485, 0.15, 0.05, 0.005
486, 0.15833333333333333, 0.05, 0.005
487, 0.16666666666666666, 0.05, 0.005
488, 0.175, 0.05, 0.005
489, 0.18333333333333332, 0.05, 0.005
490, 0.19166666666666665, 0.05, 0.005
491, 0.2, 0.05, 0.005
492, 0, 0.058333333333333334, 0.005
493, 0.008333333333333333, 0.058333333333333334, 0.005
494, 0.016666666666666666, 0.058333333333333334, 0.005
495, 0.025, 0.058333333333333334, 0.005
496, 0.03333333333333333, 0.058333333333333334, 0.005
497, 0.041666666666666664, 0.058333333333333334, 0.005
498, 0.05, 0.058333333333333334, 0.005
499, 0.058333333333333334, 0.058333333333333334, 0.005
500, 0.06666666666666667, 0.058333333333333334, 0.005
501, 0.075, 0.058333333333333334, 0.005
502, 0.08333333333333333, 0.058333333333333334, 0.005
503, 0.09166666666666666, 0.058333333333333334, 0.005
504, 0.10833333333333334, 0.058333333333333334, 0.005
505, 0.11666666666666667, 0.058333333333333334, 0.005
506, 0.125, 0.058333333333333334, 0.005
507, 0.13333333333333333, 0.058333333333333334, 0.005
508, 0.14166666666666666, 0.058333333333333334, 0.005
509, 0.15, 0.058333333333333334, 0.005
510, 0.15833333333333333, 0.058333333333333334, 0.005
511, 0.16666666666666666, 0.058333333333333334, 0.005
512, 0.175, 0.058333333333333334, 0.005
513, 0.18333333333333332, 0.058333333333333334, 0.005
514, 0.19166666666666665, 0.058333333333333334, 0.005
515, 0.2, 0.058333333333333334, 0.005
516, 0, 0.06666666666666667, 0.005
517, 0.008333333333333333, 0.06666666666666667, 0.005
518, 0.016666666666666666, 0.06666666666666667, 0.005
519, 0.025, 0.06666666666666667, 0.005
520, 0.03333333333333333, 0.06666666666666667, 0.005
521, 0.041666666666666664, 0.06666666666666667, 0.005
522, 0.05, 0.06666666666666667, 0.005
523, 0.058333333333333334, 0.06666666666666667, 0.005
524, 0.06666666666666667, 0.06666666666666667, 0.005
525, 0.075, 0.06666666666666667, 0.005
526, 0.08333333333333333, 0.06666666666666667, 0.005
527, 0.09166666666666666, 0.06666666666666667, 0.005
528, 0.1, 0.06666666666666667, 0.005
529, 0.10833333333333334, 0.06666666666666667, 0.005
530, 0.11666666666666667, 0.06666666666666667, 0.005
531, 0.125, 0.06666666666666667, 0.005
532, 0.13333333333333333, 0.06666666666666667, 0.005
533, 0.14166666666666666, 0.06666666666666667, 0.005
534, 0.15, 0.06666666666666667, 0.005
535, 0.15833333333333333, 0.06666666666666667, 0.005
536, 0.16666666666666666, 0.06666666666666667, 0.005
537, 0.175, 0.06666666666666667, 0.005
538, 0.18333333333333332, 0.06666666666666667, 0.005
539, 0.19166666666666665, 0.06666666666666667, 0.005
540, 0.2, 0.06666666666666667, 0.005
541, 0, 0.075, 0.005
542, 0.008333333333333333, 0.075, 0.005
543, 0.016666666666666666, 0.075, 0.005
544, 0.025, 0.075, 0.005
545, 0.03333333333333333, 0.075, 0.005
546, 0.041666666666666664, 0.075, 0.005
547, 0.05, 0.075, 0.005
548, 0.058333333333333334, 0.075, 0.005
549, 0.06666666666666667, 0.075, 0.005
550, 0.075, 0.075, 0.005
551, 0.08333333333333333, 0.075, 0.005
552, 0.09166666666666666, 0.075, 0.005
553, 0.1, 0.075, 0.005
554, 0.10833333333333334, 0.075, 0.005
555, 0.11666666666666667, 0.075, 0.005
556, 0.125, 0.075, 0.005
557, 0.13333333333333333, 0.075, 0.005
558, 0.14166666666666666, 0.075, 0.005
559, 0.15, 0.075, 0.005
560, 0.15833333333333333, 0.075, 0.005
561, 0.16666666666666666, 0.075, 0.005
562, 0.175, 0.075, 0.005
563, 0.18333333333333332, 0.075, 0.005
564, 0.19166666666666665, 0.075, 0.005
565, 0.2, 0.075, 0.005
566, 0, 0.08333333333333333, 0.005
567, 0.008333333333333333, 0.08333333333333333, 0.005
568, 0.016666666666666666, 0.08333333333333333, 0.005
569, 0.025, 0.08333333333333333, 0.005
570, 0.03333333333333333, 0.08333333333333333, 0.005
571, 0.041666666666666664, 0.08333333333333333, 0.005
572, 0.05, 0.08333333333333333, 0.005
573, 0.058333333333333334, 0.08333333333333333, 0.005
574, 0.06666666666666667, 0.08333333333333333, 0.005
575, 0.075, 0.08333333333333333, 0.005
576, 0.08333333333333333, 0.08333333333333333, 0.005
577, 0.09166666666666666, 0.08333333333333333, 0.005
578, 0.1, 0.08333333333333333, 0.005
579, 0.10833333333333334, 0.08333333333333333, 0.005
580, 0.11666666666666667, 0.08333333333333333, 0.005
581, 0.125, 0.08333333333333333, 0.005
582, 0.13333333333333333, 0.08333333333333333, 0.005
583, 0.14166666666666666, 0.08333333333333333, 0.005
584, 0.15, 0.08333333333333333, 0.005
585, 0.15833333333333333, 0.08333333333333333, 0.005
586, 0.16666666666666666, 0.08333333333333333, 0.005
587, 0.175, 0.08333333333333333, 0.005
588, 0.18333333333333332, 0.08333333333333333, 0.005
589, 0.19166666666666665, 0.08333333333333333, 0.005
590, 0.2, 0.08333333333333333, 0.005
591, 0, 0.09166666666666666, 0.005
592, 0.008333333333333333, 0.09166666666666666, 0.005
593, 0.016666666666666666, 0.09166666666666666, 0.005
594, 0.025, 0.09166666666666666, 0.005
595, 0.03333333333333333, 0.09166666666666666, 0.005
596, 0.041666666666666664, 0.09166666666666666, 0.005
597, 0.05, 0.09166666666666666, 0.005
598, 0.058333333333333334, 0.09166666666666666, 0.005
599, 0.06666666666666667, 0.09166666666666666, 0.005
600, 0.075, 0.09166666666666666, 0.005
601, 0.08333333333333333, 0.09166666666666666, 0.005
602, 0.09166666666666666, 0.09166666666666666, 0.005
603, 0.1, 0.09166666666666666, 0.005
604, 0.10833333333333334, 0.09166666666666666, 0.005
605, 0.11666666666666667, 0.09166666666666666, 0.005
606, 0.125, 0.09166666666666666, 0.005
607, 0.13333333333333333, 0.09166666666666666, 0.005
608, 0.14166666666666666, 0.09166666666666666, 0.005
609, 0.15, 0.09166666666666666, 0.005
610, 0.15833333333333333, 0.09166666666666666, 0.005
611, 0.16666666666666666, 0.09166666666666666, 0.005
612, 0.175, 0.09166666666666666, 0.005
613, 0.18333333333333332, 0.09166666666666666, 0.005
614, 0.19166666666666665, 0.09166666666666666, 0.005
615, 0.2, 0.09166666666666666, 0.005
616, 0, 0.1, 0.005
617, 0.008333333333333333, 0.1, 0.005
618, 0.016666666666666666, 0.1, 0.005
619, 0.025, 0.1, 0.005
620, 0.03333333333333333, 0.1, 0.005
621, 0.041666666666666664, 0.1, 0.005
622, 0.05, 0.1, 0.005
623, 0.058333333333333334, 0.1, 0.005
624, 0.06666666666666667, 0.1, 0.005
625, 0.075, 0.1, 0.005
626, 0.08333333333333333, 0.1, 0.005
627, 0.09166666666666666, 0.1, 0.005
628, 0.1, 0.1, 0.005
629, 0.10833333333333334, 0.1, 0.005
630, 0.11666666666666667, 0.1, 0.005
631, 0.125, 0.1, 0.005
632, 0.13333333333333333, 0.1, 0.005
633, 0.14166666666666666, 0.1, 0.005
634, 0.15, 0.1, 0.005
635, 0.15833333333333333, 0.1, 0.005
636, 0.16666666666666666, 0.1, 0.005
637, 0.175, 0.1, 0.005
638, 0.18333333333333332, 0.1, 0.005
639, 0.19166666666666665, 0.1, 0.005
640, 0.2, 0.1, 0.005
641, 0, 0, 0.01
642, 0.008333333333333333, 0, 0.01
643, 0.016666666666666666, 0, 0.01
644, 0.025, 0, 0.01
645, 0.03333333333333333, 0, 0.01
646, 0.041666666666666664, 0, 0.01
647, 0.05, 0, 0.01
648, 0.058333333333333334, 0, 0.01
649, 0.06666666666666667, 0, 0.01
650, 0.075, 0, 0.01
651, 0.08333333333333333, 0, 0.01
652, 0.09166666666666666, 0, 0.01
653, 0.1, 0, 0.01
654, 0.10833333333333334, 0, 0.01
655, 0.11666666666666667, 0, 0.01
656, 0.125, 0, 0.01
657, 0.13333333333333333, 0, 0.01
658, 0.14166666666666666, 0, 0.01
659, 0.15, 0, 0.01
660, 0.15833333333333333, 0, 0.01
661, 0.16666666666666666, 0, 0.01
662, 0.175, 0, 0.01
663, 0.18333333333333332, 0, 0.01
664, 0.19166666666666665, 0, 0.01
665, 0.2, 0, 0.01
666, 0, 0.008333333333333333, 0.01
667, 0.008333333333333333, 0.008333333333333333, 0.01
668, 0.016666666666666666, 0.008333333333333333, 0.01
669, 0.025, 0.008333333333333333, 0.01
670, 0.03333333333333333, 0.008333333333333333, 0.01
671, 0.041666666666666664, 0.008333333333333333, 0.01
672, 0.05, 0.008333333333333333, 0.01
673, 0.058333333333333334, 0.008333333333333333, 0.01
674, 0.06666666666666667, 0.008333333333333333, 0.01
675, 0.075, 0.008333333333333333, 0.01
676, 0.08333333333333333, 0.008333333333333333, 0.01
677, 0.09166666666666666, 0.008333333333333333, 0.01
678, 0.1, 0.008333333333333333, 0.01
679, 0.10833333333333334, 0.008333333333333333, 0.01
680, 0.11666666666666667, 0.008333333333333333, 0.01
681, 0.125, 0.008333333333333333, 0.01
682, 0.13333333333333333, 0.008333333333333333, 0.01
683, 0.14166666666666666, 0.008333333333333333, 0.01
684, 0.15, 0.008333333333333333, 0.01
685, 0.15833333333333333, 0.008333333333333333, 0.01
686, 0.16666666666666666, 0.008333333333333333, 0.01
687, 0.175, 0.008333333333333333, 0.01
688, 0.18333333333333332, 0.008333333333333333, 0.01
689, 0.19166666666666665, 0.008333333333333333, 0.01
690, 0.2, 0.008333333333333333, 0.01
691, 0, 0.016666666666666666, 0.01
692, 0.008333333333333333, 0.016666666666666666, 0.01
693, 0.016666666666666666, 0.016666666666666666, 0.01
694, 0.025, 0.016666666666666666, 0.01
695, 0.03333333333333333, 0.016666666666666666, 0.01
696, 0.041666666666666664, 0.016666666666666666, 0.01
697, 0.05, 0.016666666666666666, 0.01
698, 0.058333333333333334, 0.016666666666666666, 0.01
699, 0.06666666666666667, 0.016666666666666666, 0.01
700, 0.075, 0.016666666666666666, 0.01
701, 0.08333333333333333, 0.016666666666666666, 0.01
702, 0.09166666666666666, 0.016666666666666666, 0.01
703, 0.1, 0.016666666666666666, 0.01
704, 0.10833333333333334, 0.016666666666666666, 0.01
705, 0.11666666666666667, 0.016666666666666666, 0.01
706, 0.125, 0.016666666666666666, 0.01
707, 0.13333333333333333, 0.016666666666666666, 0.01
708, 0.14166666666666666, 0.016666666666666666, 0.01
709, 0.15, 0.016666666666666666, 0.01
710, 0.15833333333333333, 0.016666666666666666, 0.01
711, 0.16666666666666666, 0.016666666666666666, 0.01
712, 0.175, 0.016666666666666666, 0.01
713, 0.18333333333333332, 0.016666666666666666, 0.01
714, 0.19166666666666665, 0.016666666666666666, 0.01
715, 0.2, 0.016666666666666666, 0.01
716, 0, 0.025, 0.01
717, 0.008333333333333333, 0.025, 0.01
718, 0.016666666666666666, 0.025, 0.01
719, 0.025, 0.025, 0.01
720, 0.03333333333333333, 0.025, 0.01
721, 0.041666666666666664, 0.025, 0.01
722, 0.05, 0.025, 0.01
723, 0.058333333333333334, 0.025, 0.01
724, 0.06666666666666667, 0.025, 0.01
725, 0.075, 0.025, 0.01
726, 0.08333333333333333, 0.025, 0.01
727, 0.09166666666666666, 0.025, 0.01
728, 0.1, 0.025, 0.01
729, 0.10833333333333334, 0.025, 0.01
730, 0.11666666666666667, 0.025, 0.01
731, 0.125, 0.025, 0.01
732, 0.13333333333333333, 0.025, 0.01
733, 0.14166666666666666, 0.025, 0.01
734, 0.15, 0.025, 0.01
735, 0.15833333333333333, 0.025, 0.01
736, 0.16666666666666666, 0.025, 0.01
737, 0.175, 0.025, 0.01
738, 0.18333333333333332, 0.025, 0.01
739, 0.19166666666666665, 0.025, 0.01
740, 0.2, 0.025, 0.01
741, 0, 0.03333333333333333, 0.01
742, 0.008333333333333333, 0.03333333333333333, 0.01
743, 0.016666666666666666, 0.03333333333333333, 0.01
744, 0.025, 0.03333333333333333, 0.01
745, 0.03333333333333333, 0.03333333333333333, 0.01
746, 0.041666666666666664, 0.03333333333333333, 0.01
747, 0.05, 0.03333333333333333, 0.01
748, 0.058333333333333334, 0.03333333333333333, 0.01
749, 0.06666666666666667, 0.03333333333333333, 0.01
750, 0.075, 0.03333333333333333, 0.01
751, 0.08333333333333333, 0.03333333333333333, 0.01
752, 0.09166666666666666, 0.03333333333333333, 0.01
753, 0.1, 0.03333333333333333, 0.01
754, 0.10833333333333334, 0.03333333333333333, 0.01
755, 0.11666666666666667, 0.03333333333333333, 0.01
756, 0.125, 0.03333333333333333, 0.01
757, 0.13333333333333333, 0.03333333333333333, 0.01
758, 0.14166666666666666, 0.03333333333333333, 0.01
759, 0.15, 0.03333333333333333, 0.01
760, 0.15833333333333333, 0.03333333333333333, 0.01
761, 0.16666666666666666, 0.03333333333333333, 0.01
762, 0.175, 0.03333333333333333, 0.01
763, 0.18333333333333332, 0.03333333333333333, 0.01
764, 0.19166666666666665, 0.03333333333333333, 0.01
765, 0.2, 0.03333333333333333, 0.01
766, 0, 0.041666666666666664, 0.01
767, 0.008333333333333333, 0.041666666666666664, 0.01
768, 0.016666666666666666, 0.041666666666666664, 0.01
769, 0.025, 0.041666666666666664, 0.01
770, 0.03333333333333333, 0.041666666666666664, 0.01
771, 0.041666666666666664, 0.041666666666666664, 0.01
772, 0.05, 0.041666666666666664, 0.01
773, 0.058333333333333334, 0.041666666666666664, 0.01
774, 0.06666666666666667, 0.041666666666666664, 0.01
775, 0.075, 0.041666666666666664, 0.01
776, 0.08333333333333333, 0.041666666666666664, 0.01
777, 0.09166666666666666, 0.041666666666666664, 0.01
778, 0.10833333333333334, 0.041666666666666664, 0.01
779, 0.11666666666666667, 0.041666666666666664, 0.01
780, 0.125, 0.041666666666666664, 0.01
781, 0.13333333333333333, 0.041666666666666664, 0.01
782, 0.14166666666666666, 0.041666666666666664, 0.01
783, 0.15, 0.041666666666666664, 0.01
784, 0.15833333333333333, 0.041666666666666664, 0.01
785, 0.16666666666666666, 0.041666666666666664, 0.01
786, 0.175, 0.041666666666666664, 0.01
787, 0.18333333333333332, 0.041666666666666664, 0.01
788, 0.19166666666666665, 0.041666666666666664, 0.01
789, 0.2, 0.041666666666666664, 0.01
790, 0, 0.05, 0.01
791, 0.008333333333333333, 0.05, 0.01
792, 0.016666666666666666, 0.05, 0.01
793, 0.025, 0.05, 0.01
794, 0.03333333333333333, 0.05, 0.01
795, 0.041666666666666664, 0.05, 0.01
796, 0.05, 0.05, 0.01
797, 0.058333333333333334, 0.05, 0.01
798, 0.06666666666666667, 0.05, 0.01
799, 0.075, 0.05, 0.01
800, 0.08333333333333333, 0.05, 0.01
801, 0.11666666666666667, 0.05, 0.01
802, 0.125, 0.05, 0.01
803, 0.13333333333333333, 0.05, 0.01
804, 0.14166666666666666, 0.05, 0.01
805, 0.15, 0.05, 0.01
806, 0.15833333333333333, 0.05, 0.01
807, 0.16666666666666666, 0.05, 0.01
808, 0.175, 0.05, 0.01
809, 0.18333333333333332, 0.05, 0.01
810, 0.19166666666666665, 0.05, 0.01
811, 0.2, 0.05, 0.01
812, 0, 0.058333333333333334, 0.01
813, 0.008333333333333333, 0.058333333333333334, 0.01
814, 0.016666666666666666, 0.058333333333333334, 0.01
815, 0.025, 0.058333333333333334, 0.01
816, 0.03333333333333333, 0.058333333333333334, 0.01
817, 0.041666666666666664, 0.058333333333333334, 0.01
818, 0.05, 0.058333333333333334, 0.01
819, 0.058333333333333334, 0.058333333333333334, 0.01
820, 0.06666666666666667, 0.058333333333333334, 0.01
821, 0.075, 0.058333333333333334, 0.01
822, 0.08333333333333333, 0.058333333333333334, 0.01
823, 0.09166666666666666, 0.058333333333333334, 0.01
824, 0.10833333333333334, 0.058333333333333334, 0.01
825, 0.11666666666666667, 0.058333333333333334, 0.01
826, 0.125, 0.058333333333333334, 0.01
827, 0.13333333333333333, 0.058333333333333334, 0.01
828, 0.14166666666666666, 0.058333333333333334, 0.01
829, 0.15, 0.058333333333333334, 0.01
830, 0.15833333333333333, 0.058333333333333334, 0.01
831, 0.16666666666666666, 0.058333333333333334, 0.01
832, 0.175, 0.058333333333333334, 0.01
833, 0.18333333333333332, 0.058333333333333334, 0.01
834, 0.19166666666666665, 0.058333333333333334, 0.01
835, 0.2, 0.058333333333333334, 0.01
836, 0, 0.06666666666666667, 0.01
837, 0.008333333333333333, 0.06666666666666667, 0.01
838, 0.016666666666666666, 0.06666666666666667, 0.01
839, 0.025, 0.06666666666666667, 0.01
840, 0.03333333333333333, 0.06666666666666667, 0.01
841, 0.041666666666666664, 0.06666666666666667, 0.01
842, 0.05, 0.06666666666666667, 0.01
843, 0.058333333333333334, 0.06666666666666667, 0.01
844, 0.06666666666666667, 0.06666666666666667, 0.01
845, 0.075, 0.06666666666666667, 0.01
846, 0.08333333333333333, 0.06666666666666667, 0.01
847, 0.09166666666666666, 0.06666666666666667, 0.01
848, 0.1, 0.06666666666666667, 0.01
849, 0.10833333333333334, 0.06666666666666667, 0.01
850, 0.11666666666666667, 0.06666666666666667, 0.01
851, 0.125, 0.06666666666666667, 0.01
852, 0.13333333333333333, 0.06666666666666667, 0.01
853, 0.14166666666666666, 0.06666666666666667, 0.01
854, 0.15, 0.06666666666666667, 0.01
855, 0.15833333333333333, 0.06666666666666667, 0.01
856, 0.16666666666666666, 0.06666666666666667, 0.01
857, 0.175, 0.06666666666666667, 0.01
858, 0.18333333333333332, 0.06666666666666667, 0.01
859, 0.19166666666666665, 0.06666666666666667, 0.01
860, 0.2, 0.06666666666666667, 0.01
861, 0, 0.075, 0.01
862, 0.008333333333333333, 0.075, 0.01
863, 0.016666666666666666, 0.075, 0.01
864, 0.025, 0.075, 0.01
865, 0.03333333333333333, 0.075, 0.01
866, 0.041666666666666664, 0.075, 0.01
867, 0.05, 0.075, 0.01
868, 0.058333333333333334, 0.075, 0.01
869, 0.06666666666666667, 0.075, 0.01
870, 0.075, 0.075, 0.01
871, 0.08333333333333333, 0.075, 0.01
872, 0.09166666666666666, 0.075, 0.01
873, 0.1, 0.075, 0.01
874, 0.10833333333333334, 0.075, 0.01
875, 0.11666666666666667, 0.075, 0.01
876, 0.125, 0.075, 0.01
877, 0.13333333333333333, 0.075, 0.01
878, 0.14166666666666666, 0.075, 0.01
879, 0.15, 0.075, 0.01
880, 0.15833333333333333, 0.075, 0.01
881, 0.16666666666666666, 0.075, 0.01
882, 0.175, 0.075, 0.01
883, 0.18333333333333332, 0.075, 0.01
884, 0.19166666666666665, 0.075, 0.01
885, 0.2, 0.075, 0.01
886, 0, 0.08333333333333333, 0.01
887, 0.008333333333333333, 0.08333333333333333, 0.01
888, 0.016666666666666666, 0.08333333333333333, 0.01
889, 0.025, 0.08333333333333333, 0.01
890, 0.03333333333333333, 0.08333333333333333, 0.01
891, 0.041666666666666664, 0.08333333333333333, 0.01
892, 0.05, 0.08333333333333333, 0.01
893, 0.058333333333333334, 0.08333333333333333, 0.01
894, 0.06666666666666667, 0.08333333333333333, 0.01
895, 0.075, 0.08333333333333333, 0.01
896, 0.08333333333333333, 0.08333333333333333, 0.01
897, 0.09166666666666666, 0.08333333333333333, 0.01
898, 0.1, 0.08333333333333333, 0.01
899, 0.10833333333333334, 0.08333333333333333, 0.01
900, 0.11666666666666667, 0.08333333333333333, 0.01
901, 0.125, 0.08333333333333333, 0.01
902, 0.13333333333333333, 0.08333333333333333, 0.01
903, 0.14166666666666666, 0.08333333333333333, 0.01
904, 0.15, 0.08333333333333333, 0.01
905, 0.15833333333333333, 0.08333333333333333, 0.01
906, 0.16666666666666666, 0.08333333333333333, 0.01
907, 0.175, 0.08333333333333333, 0.01
908, 0.18333333333333332, 0.08333333333333333, 0.01
909, 0.19166666666666665, 0.08333333333333333, 0.01
910, 0.2, 0.08333333333333333, 0.01
911, 0, 0.09166666666666666, 0.01
912, 0.008333333333333333, 0.09166666666666666, 0.01
913, 0.016666666666666666, 0.09166666666666666, 0.01
914, 0.025, 0.09166666666666666, 0.01
915, 0.03333333333333333, 0.09166666666666666, 0.01
916, 0.041666666666666664, 0.09166666666666666, 0.01
917, 0.05, 0.09166666666666666, 0.01
918, 0.058333333333333334, 0.09166666666666666, 0.01
919, 0.06666666666666667, 0.09166666666666666, 0.01
920, 0.075, 0.09166666666666666, 0.01
921, 0.08333333333333333, 0.09166666666666666, 0.01
922, 0.09166666666666666, 0.09166666666666666, 0.01
923, 0.1, 0.09166666666666666, 0.01
924, 0.10833333333333334, 0.09166666666666666, 0.01
925, 0.11666666666666667, 0.09166666666666666, 0.01
926, 0.125, 0.09166666666666666, 0.01
927, 0.13333333333333333, 0.09166666666666666, 0.01
928, 0.14166666666666666, 0.09166666666666666, 0.01
929, 0.15, 0.09166666666666666, 0.01
930, 0.15833333333333333, 0.09166666666666666, 0.01
931, 0.16666666666666666, 0.09166666666666666, 0.01
932, 0.175, 0.09166666666666666, 0.01
933, 0.18333333333333332, 0.09166666666666666, 0.01
934, 0.19166666666666665, 0.09166666666666666, 0.01
935, 0.2, 0.09166666666666666, 0.01
936, 0, 0.1, 0.01
937, 0.008333333333333333, 0.1, 0.01
938, 0.016666666666666666, 0.1, 0.01
939, 0.025, 0.1, 0.01
940, 0.03333333333333333, 0.1, 0.01
941, 0.041666666666666664, 0.1, 0.01
942, 0.05, 0.1, 0.01
943, 0.058333333333333334, 0.1, 0.01
944, 0.06666666666666667, 0.1, 0.01
945, 0.075, 0.1, 0.01
946, 0.08333333333333333, 0.1, 0.01
947, 0.09166666666666666, 0.1, 0.01
948, 0.1, 0.1, 0.01
949, 0.10833333333333334, 0.1, 0.01
950, 0.11666666666666667, 0.1, 0.01
951, 0.125, 0.1, 0.01
952, 0.13333333333333333, 0.1, 0.01
953, 0.14166666666666666, 0.1, 0.01
954, 0.15, 0.1, 0.01
955, 0.15833333333333333, 0.1, 0.01
956, 0.16666666666666666, 0.1, 0.01
957, 0.175, 0.1, 0.01
958, 0.18333333333333332, 0.1, 0.01
959, 0.19166666666666665, 0.1, 0.01
960, 0.2, 0.1, 0.01
*ELEMENT, TYPE=C3D8, ELSET=SOLID
1, 1, 2, 27, 26, 321, 322, 347, 346
2, 2, 3, 28, 27, 322, 323, 348, 347
3, 3, 4, 29, 28, 323, 324, 349, 348
4, 4, 5, 30, 29, 324, 325, 350, 349
5, 5, 6, 31, 30, 325, 326, 351, 350
6, 6, 7, 32, 31, 326, 327, 352, 351
7, 7, 8, 33, 32, 327, 328, 353, 352
8, 8, 9, 34, 33, 328, 329, 354, 353
9, 9, 10, 35, 34, 329, 330, 355, 354
10, 10, 11, 36, 35, 330, 331, 356, 355
11, 11, 12, 37, 36, 331, 332, 357, 356
12, 12, 13, 38, 37, 332, 333, 358, 357
13, 13, 14, 39, 38, 333, 334, 359, 358
14, 14, 15, 40, 39, 334, 335, 360, 359
15, 15, 16, 41, 40, 335, 336, 361, 360
16, 16, 17, 42, 41, 336, 337, 362, 361
17, 17, 18, 43, 42, 337, 338, 363, 362
18, 18, 19, 44, 43, 338, 339, 364, 363
19, 19, 20, 45, 44, 339, 340, 365, 364
20, 20, 21, 46, 45, 340, 341, 366, 365
21, 21, 22, 47, 46, 341, 342, 367, 366
22, 22, 23, 48, 47, 342, 343, 368, 367
23, 23, 24, 49, 48, 343, 344, 369, 368
24, 24, 25, 50, 49, 344, 345, 370, 369
25, 26, 27, 52, 51, 346, 347, 372, 371
26, 27, 28, 53, 52, 347, 348, 373, 372
27, 28, 29, 54, 53, 348, 349, 374, 373
28, 29, 30, 55, 54, 349, 350, 375, 374
29, 30, 31, 56, 55, 350, 351, 376, 375
30, 31, 32, 57, 56, 351, 352, 377, 376
31, 32, 33, 58, 57, 352, 353, 378, 377
32, 33, 34, 59, 58, 353, 354, 379, 378
33, 34, 35, 60, 59, 354, 355, 380, 379
34, 35, 36, 61, 60, 355, 356, 381, 380
35, 36, 37, 62, 61, 356, 357, 382, 381
36, 37, 38, 63, 62, 357, 358, 383, 382
37, 38, 39, 64, 63, 358, 359, 384, 383
38, 39, 40, 65, 64, 359, 360, 385, 384
39, 40, 41, 66, 65, 360, 361, 386, 385
40, 41, 42, 67, 66, 361, 362, 387, 386
41, 42, 43, 68, 67, 362, 363, 388, 387
42, 43, 44, 69, 68, 363, 364, 389, 388
43, 44, 45, 70, 69, 364, 365, 390, 389
44, 45, 46, 71, 70, 365, 366, 391, 390
45, 46, 47, 72, 71, 366, 367, 392, 391
46, 47, 48, 73, 72, 367, 368, 393, 392
47, 48, 49, 74, 73, 368, 369, 394, 393
48, 49, 50, 75, 74, 369, 370, 395, 394
49, 51, 52, 77, 76, 371, 372, 397, 396
50, 52, 53, 78, 77, 372, 373, 398, 397
51, 53, 54, 79, 78, 373, 374, 399, 398
52, 54, 55, 80, 79, 374, 375, 400, 399
53, 55, 56, 81, 80, 375, 376, 401, 400
54, 56, 57, 82, 81, 376, 377, 402, 401
55, 57, 58, 83, 82, 377, 378, 403, 402
56, 58, 59, 84, 83, 378, 379, 404, 403
57, 59, 60, 85, 84, 379, 380, 405, 404
58, 60, 61, 86, 85, 380, 381, 406, 405
59, 61, 62, 87, 86, 381, 382, 407, 406
60, 62, 63, 88, 87, 382, 383, 408, 407
61, 63, 64, 89, 88, 383, 384, 409, 408
62, 64, 65, 90, 89, 384, 385, 410, 409
63, 65, 66, 91, 90, 385, 386, 411, 410
64, 66, 67, 92, 91, 386, 387, 412, 411
65, 67, 68, 93, 92, 387, 388, 413, 412
66, 68, 69, 94, 93, 388, 389, 414, 413
67, 69, 70, 95, 94, 389, 390, 415, 414
68, 70, 71, 96, 95, 390, 391, 416, 415
69, 71, 72, 97, 96, 391, 392, 417, 416
70, 72, 73, 98, 97, 392, 393, 418, 417
71, 73, 74, 99, 98, 393, 394, 419, 418
72, 74, 75, 100, 99, 394, 395, 420, 419
73, 76, 77, 102, 101, 396, 397, 422, 421
74, 77, 78, 103, 102, 397, 398, 423, 422
75, 78, 79, 104, 103, 398, 399, 424, 423
76, 79, 80, 105, 104, 399, 400, 425, 424
77, 80, 81, 106, 105, 400, 401, 426, 425
78, 81, 82, 107, 106, 401, 402, 427, 426
79, 82, 83, 108, 107, 402, 403, 428, 427
80, 83, 84, 109, 108, 403, 404, 429, 428
81, 84, 85, 110, 109, 404, 405, 430, 429
82, 85, 86, 111, 110, 405, 406, 431, 430
83, 86, 87, 112, 111, 406, 407, 432, 431
84, 87, 88, 113, 112, 407, 408, 433, 432
85, 88, 89, 114, 113, 408, 409, 434, 433
86, 89, 90, 115, 114, 409, 410, 435, 434
87, 90, 91, 116, 115, 410, 411, 436, 435
88, 91, 92, 117, 116, 411, 412, 437, 436
89, 92, 93, 118, 117, 412, 413, 438, 437
90, 93, 94, 119, 118, 413, 414, 439, 438
91, 94, 95, 120, 119, 414, 415, 440, 439
92, 95, 96, 121, 120, 415, 416, 441, 440
93, 96, 97, 122, 121, 416, 417, 442, 441
94, 97, 98, 123, 122, 417, 418, 443, 442
95, 98, 99, 124, 123, 418, 419, 444, 443
96, 99, 100, 125, 124, 419, 420, 445, 444
97, 101, 102, 127, 126, 421, 422, 447, 446
98, 102, 103, 128, 127, 422, 423, 448, 447
99, 103, 104, 129, 128, 423, 424, 449, 448
100, 104, 105, 130, 129, 424, 425, 450, 449
101, 105, 106, 131, 130, 425, 426, 451, 450
102, 106, 107, 132, 131, 426, 427, 452, 451
103, 107, 108, 133, 132, 427, 428, 453, 452
104, 108, 109, 134, 133, 428, 429, 454, 453
105, 109, 110, 135, 134, 429, 430, 455, 454
106, 110, 111, 136, 135, 430, 431, 456, 455
107, 111, 112, 137, 136, 431, 432, 457, 456
108, 114, 115, 139, 138, 434, 435, 459, 458
109, 115, 116, 140, 139, 435, 436, 460, 459
110, 116, 117, 141, 140, 436, 437, 461, 460
111, 117, 118, 142, 141, 437, 438, 462, 461
112, 118, 119, 143, 142, 438, 439, 463, 462
113, 119, 120, 144, 143, 439, 440, 464, 463
114, 120, 121, 145, 144, 440, 441, 465, 464
115, 121, 122, 146, 145, 441, 442, 466, 465
116, 122, 123, 147, 146, 442, 443, 467, 466
117, 123, 124, 148, 147, 443, 444, 468, 467
118, 124, 125, 149, 148, 444, 445, 469, 468
119, 126, 127, 151, 150, 446, 447, 471, 470
120, 127, 128, 152, 151, 447, 448, 472, 471
121, 128, 129, 153, 152, 448, 449, 473, 472
122, 129, 130, 154, 153, 449, 450, 474, 473
123, 130, 131, 155, 154, 450, 451, 475, 474
124, 131, 132, 156, 155, 451, 452, 476, 475
125, 132, 133, 157, 156, 452, 453, 477, 476
126, 133, 134, 158, 157, 453, 454, 478, 477
127, 134, 135, 159, 158, 454, 455, 479, 478
128, 135, 136, 160, 159, 455, 456, 480, 479
129, 139, 140, 162, 161, 459, 460, 482, 481
130, 140, 141, 163, 162, 460, 461, 483, 482
131, 141, 142, 164, 163, 461, 462, 484, 483
132, 142, 143, 165, 164, 462, 463, 485, 484
133, 143, 144, 166, 165, 463, 464, 486, 485
134, 144, 145, 167, 166, 464, 465, 487, 486
135, 145, 146, 168, 167, 465, 466, 488, 487
136, 146, 147, 169, 168, 466, 467, 489, 488
137, 147, 148, 170, 169, 467, 468, 490, 489
138, 148, 149, 171, 170, 468, 469, 491, 490
139, 150, 151, 173, 172, 470, 471, 493, 492
140, 151, 152, 174, 173, 471, 472, 494, 493
141, 152, 153, 175, 174, 472, 473, 495, 494
142, 153, 154, 176, 175, 473, 474, 496, 495
143, 154, 155, 177, 176, 474, 475, 497, 496
144, 155, 156, 178, 177, 475, 476, 498, 497
145, 156, 157, 179, 178, 476, 477, 499, 498
146, 157, 158, 180, 179, 477, 478, 500, 499
147, 158, 159, 181, 180, 478, 479, 501, 500
148, 159, 160, 182, 181, 479, 480, 502, 501
149, 161, 162, 186, 185, 481, 482, 506, 505
150, 162, 163, 187, 186, 482, 483, 507, 506
151, 163, 164, 188, 187, 483, 484, 508, 507
152, 164, 165, 189, 188, 484, 485, 509, 508
153, 165, 166, 190, 189, 485, 486, 510, 509
154, 166, 167, 191, 190, 486, 487, 511, 510
155, 167, 168, 192, 191, 487, 488, 512, 511
156, 168, 169, 193, 192, 488, 489, 513, 512
157, 169, 170, 194, 193, 489, 490, 514, 513
158, 170, 171, 195, 194, 490, 491, 515, 514
159, 172, 173, 197, 196, 492, 493, 517, 516
160, 173, 174, 198, 197, 493, 494, 518, 517
161, 174, 175, 199, 198, 494, 495, 519, 518
162, 175, 176, 200, 199, 495, 496, 520, 519
163, 176, 177, 201, 200, 496, 497, 521, 520
164, 177, 178, 202, 201, 497, 498, 522, 521
165, 178, 179, 203, 202, 498, 499, 523, 522
166, 179, 180, 204, 203, 499, 500, 524, 523
167, 180, 181, 205, 204, 500, 501, 525, 524
168, 181, 182, 206, 205, 501, 502, 526, 525
169, 182, 183, 207, 206, 502, 503, 527, 526
170, 184, 185, 210, 209, 504, 505, 530, 529
171, 185, 186, 211, 210, 505, 506, 531, 530
172, 186, 187, 212, 211, 506, 507, 532, 531
173, 187, 188, 213, 212, 507, 508, 533, 532
174, 188, 189, 214, 213, 508, 509, 534, 533
175, 189, 190, 215, 214, 509, 510, 535, 534
176, 190, 191, 216, 215, 510, 511, 536, 535
177, 191, 192, 217, 216, 511, 512, 537, 536
178, 192, 193, 218, 217, 512, 513, 538, 537
179, 193, 194, 219, 218, 513, 514, 539, 538
180, 194, 195, 220, 219, 514, 515, 540, 539
181, 196, 197, 222, 221, 516, 517, 542, 541
182, 197, 198, 223, 222, 517, 518, 543, 542
183, 198, 199, 224, 223, 518, 519, 544, 543
184, 199, 200, 225, 224, 519, 520, 545, 544
185, 200, 201, 226, 225, 520, 521, 546, 545
186, 201, 202, 227, 226, 521, 522, 547, 546
187, 202, 203, 228, 227, 522, 523, 548, 547
188, 203, 204, 229, 228, 523, 524, 549, 548
189, 204, 205, 230, 229, 524, 525, 550, 549
190, 205, 206, 231, 230, 525, 526, 551, 550
191, 206, 207, 232, 231, 526, 527, 552, 551
192, 207, 208, 233, 232, 527, 528, 553, 552
193, 208, 209, 234, 233, 528, 529, 554, 553
194, 209, 210, 235, 234, 529, 530, 555, 554
195, 210, 211, 236, 235, 530, 531, 556, 555
196, 211, 212, 237, 236, 531, 532, 557, 556
197, 212, 213, 238, 237, 532, 533, 558, 557
198, 213, 214, 239, 238, 533, 534, 559, 558
199, 214, 215, 240, 239, 534, 535, 560, 559
200, 215, 216, 241, 240, 535, 536, 561, 560
201, 216, 217, 242, 241, 536, 537, 562, 561
202, 217, 218, 243, 242, 537, 538, 563, 562
203, 218, 219, 244, 243, 538, 539, 564, 563
204, 219, 220, 245, 244, 539, 540, 565, 564
205, 221, 222, 247, 246, 541, 542, 567, 566
206, 222, 223, 248, 247, 542, 543, 568, 567
207, 223, 224, 249, 248, 543, 544, 569, 568
208, 224, 225, 250, 249, 544, 545, 570, 569
209, 225, 226, 251, 250, 545, 546, 571, 570
210, 226, 227, 252, 251, 546, 547, 572, 571
211, 227, 228, 253, 252, 547, 548, 573, 572
212, 228, 229, 254, 253, 548, 549, 574, 573
213, 229, 230, 255, 254, 549, 550, 575, 574
214, 230, 231, 256, 255, 550, 551, 576, 575
215, 231, 232, 257, 256, 551, 552, 577, 576
216, 232, 233, 258, 257, 552, 553, 578, 577
217, 233, 234, 259, 258, 553, 554, 579, 578
218, 234, 235, 260, 259, 554, 555, 580, 579
219, 235, 236, 261, 260, 555, 556, 581, 580
220, 236, 237, 262, 261, 556, 557, 582, 581
221, 237, 238, 263, 262, 557, 558, 583, 582
222, 238, 239, 264, 263, 558, 559, 584, 583
223, 239, 240, 265, 264, 559, 560, 585, 584
224, 240, 241, 266, 265, 560, 561, 586, 585
225, 241, 242, 267, 266, 561, 562, 587, 586
226, 242, 243, 268, 267, 562, 563, 588, 587
227, 243, 244, 269, 268, 563, 564, 589, 588
228, 244, 245, 270, 269, 564, 565, 590, 589
229, 246, 247, 272, 271, 566, 567, 592, 591
230, 247, 248, 273, 272, 567, 568, 593, 592
231, 248, 249, 274, 273, 568, 569, 594, 593
232, 249, 250, 275, 274, 569, 570, 595, 594
233, 250, 251, 276, 275, 570, 571, 596, 595
234, 251, 252, 277, 276, 571, 572, 597, 596
235, 252, 253, 278, 277, 572, 573, 598, 597
236, 253, 254, 279, 278, 573, 574, 599, 598
237, 254, 255, 280, 279, 574, 575, 600, 599
238, 255, 256, 281, 280, 575, 576, 601, 600
239, 256, 257, 282, 281, 576, 577, 602, 601
240, 257, 258, 283, 282, 577, 578, 603, 602
241, 258, 259, 284, 283, 578, 579, 604, 603
242, 259, 260, 285, 284, 579, 580, 605, 604
243, 260, 261, 286, 285, 580, 581, 606, 605
244, 261, 262, 287, 286, 581, 582, 607, 606
245, 262, 263, 288, 287, 582, 583, 608, 607
246, 263, 264, 289, 288, 583, 584, 609, 608
247, 264, 265, 290, 289, 584, 585, 610, 609
248, 265, 266, 291, 290, 585, 586, 611, 610
249, 266, 267, 292, 291, 586, 587, 612, 611
250, 267, 268, 293, 292, 587, 588, 613, 612
251, 268, 269, 294, 293, 588, 589, 614, 613
252, 269, 270, 295, 294, 589, 590, 615, 614
253, 271, 272, 297, 296, 591, 592, 617, 616
254, 272, 273, 298, 297, 592, 593, 618, 617
255, 273, 274, 299, 298, 593, 594, 619, 618
256, 274, 275, 300, 299, 594, 595, 620, 619
257, 275, 276, 301, 300, 595, 596, 621, 620
258, 276, 277, 302, 301, 596, 597, 622, 621
259, 277, 278, 303, 302, 597, 598, 623, 622
260, 278, 279, 304, 303, 598, 599, 624, 623
261, 279, 280, 305, 304, 599, 600, 625, 624
262, 280, 281, 306, 305, 600, 601, 626, 625
263, 281, 282, 307, 306, 601, 602, 627, 626
264, 282, 283, 308, 307, 602, 603, 628, 627
265, 283, 284, 309, 308, 603, 604, 629, 628
266, 284, 285, 310, 309, 604, 605, 630, 629
267, 285, 286, 311, 310, 605, 606, 631, 630
268, 286, 287, 312, 311, 606, 607, 632, 631
269, 287, 288, 313, 312, 607, 608, 633, 632
270, 288, 289, 314, 313, 608, 609, 634, 633
271, 289, 290, 315, 314, 609, 610, 635, 634
272, 290, 291, 316, 315, 610, 611, 636, 635
273, 291, 292, 317, 316, 611, 612, 637, 636
274, 292, 293, 318, 317, 612, 613, 638, 637
275, 293, 294, 319, 318, 613, 614, 639, 638
276, 294, 295, 320, 319, 614, 615, 640, 639
277, 321, 322, 347, 346, 641, 642, 667, 666
278, 322, 323, 348, 347, 642, 643, 668, 667
279, 323, 324, 349, 348, 643, 644, 669, 668
280, 324, 325, 350, 349, 644, 645, 670, 669
281, 325, 326, 351, 350, 645, 646, 671, 670
282, 326, 327, 352, 351, 646, 647, 672, 671
283, 327, 328, 353, 352, 647, 648, 673, 672
284, 328, 329, 354, 353, 648, 649, 674, 673
285, 329, 330, 355, 354, 649, 650, 675, 674
286, 330, 331, 356, 355, 650, 651, 676, 675
287, 331, 332, 357, 356, 651, 652, 677, 676
288, 332, 333, 358, 357, 652, 653, 678, 677
289, 333, 334, 359, 358, 653, 654, 679, 678
290, 334, 335, 360, 359, 654, 655, 680, 679
291, 335, 336, 361, 360, 655, 656, 681, 680
292, 336, 337, 362, 361, 656, 657, 682, 681
293, 337, 338, 363, 362, 657, 658, 683, 682
294, 338, 339, 364, 363, 658, 659, 684, 683
295, 339, 340, 365, 364, 659, 660, 685, 684
296, 340, 341, 366, 365, 660, 661, 686, 685
297, 341, 342, 367, 366, 661, 662, 687, 686
298, 342, 343, 368, 367, 662, 663, 688, 687
299, 343, 344, 369, 368, 663, 664, 689, 688
300, 344, 345, 370, 369, 664, 665, 690, 689
301, 346, 347, 372, 371, 666, 667, 692, 691
302, 347, 348, 373, 372, 667, 668, 693, 692
303, 348, 349, 374, 373, 668, 669, 694, 693
304, 349, 350, 375, 374, 669, 670, 695, 694
305, 350, 351, 376, 375, 670, 671, 696, 695
306, 351, 352, 377, 376, 671, 672, 697, 696
307, 352, 353, 378, 377, 672, 673, 698, 697
308, 353, 354, 379, 378, 673, 674, 699, 698
309, 354, 355, 380, 379, 674, 675, 700, 699
310, 355, 356, 381, 380, 675, 676, 701, 700
311, 356, 357, 382, 381, 676, 677, 702, 701
312, 357, 358, 383, 382, 677, 678, 703, 702
313, 358, 359, 384, 383, 678, 679, 704, 703
314, 359, 360, 385, 384, 679, 680, 705, 704
315, 360, 361, 386, 385, 680, 681, 706, 705
316, 361, 362, 387, 386, 681, 682, 707, 706
317, 362, 363, 388, 387, 682, 683, 708, 707
318, 363, 364, 389, 388, 683, 684, 709, 708
319, 364, 365, 390, 389, 684, 685, 710, 709
320, 365, 366, 391, 390, 685, 686, 711, 710
321, 366, 367, 392, 391, 686, 687, 712, 711
322, 367, 368, 393, 392, 687, 688, 713, 712
323, 368, 369, 394, 393, 688, 689, 714, 713
324, 369, 370, 395, 394, 689, 690, 715, 714
325, 371, 372, 397, 396, 691, 692, 717, 716
326, 372, 373, 398, 397, 692, 693, 718, 717
327, 373, 374, 399, 398, 693, 694, 719, 718
328, 374, 375, 400, 399, 694, 695, 720, 719
329, 375, 376, 401, 400, 695, 696, 721, 720
330, 376, 377, 402, 401, 696, 697, 722, 721
331, 377, 378, 403, 402, 697, 698, 723, 722
332, 378, 379, 404, 403, 698, 699, 724, 723
333, 379, 380, 405, 404, 699, 700, 725, 724
334, 380, 381, 406, 405, 700, 701, 726, 725
335, 381, 382, 407, 406, 701, 702, 727, 726
336, 382, 383, 408, 407, 702, 703, 728, 727
337, 383, 384, 409, 408, 703, 704, 729, 728
338, 384, 385, 410, 409, 704, 705, 730, 729
339, 385, 386, 411, 410, 705, 706, 731, 730
340, 386, 387, 412, 411, 706, 707, 732, 731
341, 387, 388, 413, 412, 707, 708, 733, 732
342, 388, 389, 414, 413, 708, 709, 734, 733
343, 389, 390, 415, 414, 709, 710, 735, 734
344, 390, 391, 416, 415, 710, 711, 736, 735
345, 391, 392, 417, 416, 711, 712, 737, 736
346, 392, 393, 418, 417, 712, 713, 738, 737
347, 393, 394, 419, 418, 713, 714, 739, 738
348, 394, 395, 420, 419, 714, 715, 740, 739
349, 396, 397, 422, 421, 716, 717, 742, 741
350, 397, 398, 423, 422, 717, 718, 743, 742
351, 398, 399, 424, 423, 718, 719, 744, 743
352, 399, 400, 425, 424, 719, 720, 745, 744
353, 400, 401, 426, 425, 720, 721, 746, 745
354, 401, 402, 427, 426, 721, 722, 747, 746
355, 402, 403, 428, 427, 722, 723, 748, 747
356, 403, 404, 429, 428, 723, 724, 749, 748
357, 404, 405, 430, 429, 724, 725, 750, 749
358, 405, 406, 431, 430, 725, 726, 751, 750
359, 406, 407, 432, 431, 726, 727, 752, 751
360, 407, 408, 433, 432, 727, 728, 753, 752
361, 408, 409, 434, 433, 728, 729, 754, 753
362, 409, 410, 435, 434, 729, 730, 755, 754
363, 410, 411, 436, 435, 730, 731, 756, 755
364, 411, 412, 437, 436, 731, 732, 757, 756
365, 412, 413, 438, 437, 732, 733, 758, 757
366, 413, 414, 439, 438, 733, 734, 759, 758
367, 414, 415, 440, 439, 734, 735, 760, 759
368, 415, 416, 441, 440, 735, 736, 761, 760
369, 416, 417, 442, 441, 736, 737, 762, 761
370, 417, 418, 443, 442, 737, 738, 763, 762
371, 418, 419, 444, 443, 738, 739, 764, 763
372, 419, 420, 445, 444, 739, 740, 765, 764
373, 421, 422, 447, 446, 741, 742, 767, 766
374, 422, 423, 448, 447, 742, 743, 768, 767
375, 423, 424, 449, 448, 743, 744, 769, 768
376, 424, 425, 450, 449, 744, 745, 770, 769
377, 425, 426, 451, 450, 745, 746, 771, 770
378, 426, 427, 452, 451, 746, 747, 772, 771
379, 427, 428, 453, 452, 747, 748, 773, 772
380, 428, 429, 454, 453, 748, 749, 774, 773
381, 429, 430, 455, 454, 749, 750, 775, 774
382, 430, 431, 456, 455, 750, 751, 776, 775
383, 431, 432, 457, 456, 751, 752, 777, 776
384, 434, 435, 459, 458, 754, 755, 779, 778
385, 435, 436, 460, 459, 755, 756, 780, 779
386, 436, 437, 461, 460, 756, 757, 781, 780
387, 437, 438, 462, 461, 757, 758, 782, 781
388, 438, 439, 463, 462, 758, 759, 783, 782
389, 439, 440, 464, 463, 759, 760, 784, 783
390, 440, 441, 465, 464, 760, 761, 785, 784
391, 441, 442, 466, 465, 761, 762, 786, 785
392, 442, 443, 467, 466, 762, 763, 787, 786
393, 443, 444, 468, 467, 763, 764, 788, 787
394, 444, 445, 469, 468, 764, 765, 789, 788
395, 446, 447, 471, 470, 766, 767, 791, 790
396, 447, 448, 472, 471, 767, 768, 792, 791
397, 448, 449, 473, 472, 768, 769, 793, 792
398, 449, 450, 474, 473, 769, 770, 794, 793
399, 450, 451, 475, 474, 770, 771, 795, 794
400, 451, 452, 476, 475, 771, 772, 796, 795
401, 452, 453, 477, 476, 772, 773, 797, 796
402, 453, 454, 478, 477, 773, 774, 798, 797
403, 454, 455, 479, 478, 774, 775, 799, 798
404, 455, 456, 480, 479, 775, 776, 800, 799
405, 459, 460, 482, 481, 779, 780, 802, 801
406, 460, 461, 483, 482, 780, 781, 803, 802
407, 461, 462, 484, 483, 781, 782, 804, 803
408, 462, 463, 485, 484, 782, 783, 805, 804
409, 463, 464, 486, 485, 783, 784, 806, 805
410, 464, 465, 487, 486, 784, 785, 807, 806
411, 465, 466, 488, 487, 785, 786, 808, 807
412, 466, 467, 489, 488, 786, 787, 809, 808
413, 467, 468, 490, 489, 787, 788, 810, 809
414, 468, 469, 491, 490, 788, 789, 811, 810
415, 470, 471, 493, 492, 790, 791, 813, 812
416, 471, 472, 494, 493, 791, 792, 814, 813
417, 472, 473, 495, 494, 792, 793, 815, 814
418, 473, 474, 496, 495, 793, 794, 816, 815
419, 474, 475, 497, 496, 794, 795, 817, 816
420, 475, 476, 498, 497, 795, 796, 818, 817
421, 476, 477, 499, 498, 796, 797, 819, 818
422, 477, 478, 500, 499, 797, 798, 820, 819
423, 478, 479, 501, 500, 798, 799, 821, 820
424, 479, 480, 502, 501, 799, 800, 822, 821
425, 481, 482, 506, 505, 801, 802, 826, 825
426, 482, 483, 507, 506, 802, 803, 827, 826
427, 483, 484, 508, 507, 803, 804, 828, 827
428, 484, 485, 509, 508, 804, 805, 829, 828
429, 485, 486, 510, 509, 805, 806, 830, 829
430, 486, 487, 511, 510, 806, 807, 831, 830
431, 487, 488, 512, 511, 807, 808, 832, 831
432, 488, 489, 513, 512, 808, 809, 833, 832
433, 489, 490, 514, 513, 809, 810, 834, 833
434, 490, 491, 515, 514, 810, 811, 835, 834
435, 492, 493, 517, 516, 812, 813, 837, 836
436, 493, 494, 518, 517, 813, 814, 838, 837
437, 494, 495, 519, 518, 814, 815, 839, 838
438, 495, 496, 520, 519, 815, 816, 840, 839
439, 496, 497, 521, 520, 816, 817, 841, 840
440, 497, 498, 522, 521, 817, 818, 842, 841
441, 498, 499, 523, 522, 818, 819, 843, 842
442, 499, 500, 524, 523, 819, 820, 844, 843
443, 500, 501, 525, 524, 820, 821, 845, 844
444, 501, 502, 526, 525, 821, 822, 846, 845
445, 502, 503, 527, 526, 822, 823, 847, 846
446, 504, 505, 530, 529, 824, 825, 850, 849
447, 505, 506, 531, 530, 825, 826, 851, 850
448, 506, 507, 532, 531, 826, 827, 852, 851
449, 507, 508, 533, 532, 827, 828, 853, 852
450, 508, 509, 534, 533, 828, 829, 854, 853
451, 509, 510, 535, 534, 829, 830, 855, 854
452, 510, 511, 536, 535, 830, 831, 856, 855
453, 511, 512, 537, 536, 831, 832, 857, 856
454, 512, 513, 538, 537, 832, 833, 858, 857
455, 513, 514, 539, 538, 833, 834, 859, 858
456, 514, 515, 540, 539, 834, 835, 860, 859
457, 516, 517, 542, 541, 836, 837, 862, 861
458, 517, 518, 543, 542, 837, 838, 863, 862
459, 518, 519, 544, 543, 838, 839, 864, 863
460, 519, 520, 545, 544, 839, 840, 865, 864
461, 520, 521, 546, 545, 840, 841, 866, 865
462, 521, 522, 547, 546, 841, 842, 867, 866
463, 522, 523, 548, 547, 842, 843, 868, 867
464, 523, 524, 549, 548, 843, 844, 869, 868
465, 524, 525, 550, 549, 844, 845, 870, 869
466, 525, 526, 551, 550, 845, 846, 871, 870
467, 526, 527, 552, 551, 846, 847, 872, 871
468, 527, 528, 553, 552, 847, 848, 873, 872
469, 528, 529, 554, 553, 848, 849, 874, 873
470, 529, 530, 555, 554, 849, 850, 875, 874
471, 530, 531, 556, 555, 850, 851, 876, 875
472, 531, 532, 557, 556, 851, 852, 877, 876
473, 532, 533, 558, 557, 852, 853, 878, 877
474, 533, 534, 559, 558, 853, 854, 879, 878
475, 534, 535, 560, 559, 854, 855, 880, 879
476, 535, 536, 561, 560, 855, 856, 881, 880
477, 536, 537, 562, 561, 856, 857, 882, 881
478, 537, 538, 563, 562, 857, 858, 883, 882
479, 538, 539, 564, 563, 858, 859, 884, 883
480, 539, 540, 565, 564, 859, 860, 885, 884
481, 541, 542, 567, 566, 861, 862, 887, 886
482, 542, 543, 568, 567, 862, 863, 888, 887
483, 543, 544, 569, 568, 863, 864, 889, 888
484, 544, 545, 570, 569, 864, 865, 890, 889
485, 545, 546, 571, 570, 865, 866, 891, 890
486, 546, 547, 572, 571, 866, 867, 892, 891
487, 547, 548, 573, 572, 867, 868, 893, 892
488, 548, 549, 574, 573, 868, 869, 894, 893
489, 549, 550, 575, 574, 869, 870, 895, 894
490, 550, 551, 576, 575, 870, 871, 896, 895
491, 551, 552, 577, 576, 871, 872, 897, 896
492, 552, 553, 578, 577, 872, 873, 898, 897
493, 553, 554, 579, 578, 873, 874, 899, 898
494, 554, 555, 580, 579, 874, 875, 900, 899
495, 555, 556, 581, 580, 875, 876, 901, 900
496, 556, 557, 582, 581, 876, 877, 902, 901
497, 557, 558, 583, 582, 877, 878, 903, 902
498, 558, 559, 584, 583, 878, 879, 904, 903
499, 559, 560, 585, 584, 879, 880, 905, 904
500, 560, 561, 586, 585, 880, 881, 906, 905
501, 561, 562, 587, 586, 881, 882, 907, 906
502, 562, 563, 588, 587, 882, 883, 908, 907
503, 563, 564, 589, 588, 883, 884, 909, 908
504, 564, 565, 590, 589, 884, 885, 910, 909
505, 566, 567, 592, 591, 886, 887, 912, 911
506, 567, 568, 593, 592, 887, 888, 913, 912
507, 568, 569, 594, 593, 888, 889, 914, 913
508, 569, 570, 595, 594, 889, 890, 915, 914
509, 570, 571, 596, 595, 890, 891, 916, 915
510, 571, 572, 597, 596, 891, 892, 917, 916
511, 572, 573, 598, 597, 892, 893, 918, 917
512, 573, 574, 599, 598, 893, 894, 919, 918
513, 574, 575, 600, 599, 894, 895, 920, 919
514, 575, 576, 601, 600, 895, 896, 921, 920
515, 576, 577, 602, 601, 896, 897, 922, 921
516, 577, 578, 603, 602, 897, 898, 923, 922
517, 578, 579, 604, 603, 898, 899, 924, 923
518, 579, 580, 605, 604, 899, 900, 925, 924
519, 580, 581, 606, 605, 900, 901, 926, 925
520, 581, 582, 607, 606, 901, 902, 927, 926
521, 582, 583, 608, 607, 902, 903, 928, 927
522, 583, 584, 609, 608, 903, 904, 929, 928
523, 584, 585, 610, 609, 904, 905, 930, 929
524, 585, 586, 611, 610, 905, 906, 931, 930
525, 586, 587, 612, 611, 906, 907, 932, 931
526, 587, 588, 613, 612, 907, 908, 933, 932
527, 588, 589, 614, 613, 908, 909, 934, 933
528, 589, 590, 615, 614, 909, 910, 935, 934
529, 591, 592, 617, 616, 911, 912, 937, 936
530, 592, 593, 618, 617, 912, 913, 938, 937
531, 593, 594, 619, 618, 913, 914, 939, 938
532, 594, 595, 620, 619, 914, 915, 940, 939
533, 595, 596, 621, 620, 915, 916, 941, 940
534, 596, 597, 622, 621, 916, 917, 942, 941
535, 597, 598, 623, 622, 917, 918, 943, 942
536, 598, 599, 624, 623, 918, 919, 944, 943
537, 599, 600, 625, 624, 919, 920, 945, 944
538, 600, 601, 626, 625, 920, 921, 946, 945
539, 601, 602, 627, 626, 921, 922, 947, 946
540, 602, 603, 628, 627, 922, 923, 948, 947
541, 603, 604, 629, 628, 923, 924, 949, 948
542, 604, 605, 630, 629, 924, 925, 950, 949
543, 605, 606, 631, 630, 925, 926, 951, 950
544, 606, 607, 632, 631, 926, 927, 952, 951
545, 607, 608, 633, 632, 927, 928, 953, 952
546, 608, 609, 634, 633, 928, 929, 954, 953
547, 609, 610, 635, 634, 929, 930, 955, 954
548, 610, 611, 636, 635, 930, 931, 956, 955
549, 611, 612, 637, 636, 931, 932, 957, 956
550, 612, 613, 638, 637, 932, 933, 958, 957
551, 613, 614, 639, 638, 933, 934, 959, 958
552, 614, 615, 640, 639, 934, 935, 960, 959
*ELSET, ELSET=SOLID
1, 2, 3, 4, 5, 6, 7, 8, 9, 10, 11, 12, 13, 14, 15, 16
17, 18, 19, 20, 21, 22, 23, 24, 25, 26, 27, 28, 29, 30, 31, 32
33, 34, 35, 36, 37, 38, 39, 40, 41, 42, 43, 44, 45, 46, 47, 48
49, 50, 51, 52, 53, 54, 55, 56, 57, 58, 59, 60, 61, 62, 63, 64
65, 66, 67, 68, 69, 70, 71, 72, 73, 74, 75, 76, 77, 78, 79, 80
81, 82, 83, 84, 85, 86, 87, 88, 89, 90, 91, 92, 93, 94, 95, 96
97, 98, 99, 100, 101, 102, 103, 104, 105, 106, 107, 108, 109, 110, 111, 112
113, 114, 115, 116, 117, 118, 119, 120, 121, 122, 123, 124, 125, 126, 127, 128
129, 130, 131, 132, 133, 134, 135, 136, 137, 138, 139, 140, 141, 142, 143, 144
145, 146, 147, 148, 149, 150, 151, 152, 153, 154, 155, 156, 157, 158, 159, 160
161, 162, 163, 164, 165, 166, 167, 168, 169, 170, 171, 172, 173, 174, 175, 176
177, 178, 179, 180, 181, 182, 183, 184, 185, 186, 187, 188, 189, 190, 191, 192
193, 194, 195, 196, 197, 198, 199, 200, 201, 202, 203, 204, 205, 206, 207, 208
209, 210, 211, 212, 213, 214, 215, 216, 217, 218, 219, 220, 221, 222, 223, 224
225, 226, 227, 228, 229, 230, 231, 232, 233, 234, 235, 236, 237, 238, 239, 240
241, 242, 243, 244, 245, 246, 247, 248, 249, 250, 251, 252, 253, 254, 255, 256
257, 258, 259, 260, 261, 262, 263, 264, 265, 266, 267, 268, 269, 270, 271, 272
273, 274, 275, 276, 277, 278, 279, 280, 281, 282, 283, 284, 285, 286, 287, 288
289, 290, 291, 292, 293, 294, 295, 296, 297, 298, 299, 300, 301, 302, 303, 304
305, 306, 307, 308, 309, 310, 311, 312, 313, 314, 315, 316, 317, 318, 319, 320
321, 322, 323, 324, 325, 326, 327, 328, 329, 330, 331, 332, 333, 334, 335, 336
337, 338, 339, 340, 341, 342, 343, 344, 345, 346, 347, 348, 349, 350, 351, 352
353, 354, 355, 356, 357, 358, 359, 360, 361, 362, 363, 364, 365, 366, 367, 368
369, 370, 371, 372, 373, 374, 375, 376, 377, 378, 379, 380, 381, 382, 383, 384
385, 386, 387, 388, 389, 390, 391, 392, 393, 394, 395, 396, 397, 398, 399, 400
401, 402, 403, 404, 405, 406, 407, 408, 409, 410, 411, 412, 413, 414, 415, 416
417, 418, 419, 420, 421, 422, 423, 424, 425, 426, 427, 428, 429, 430, 431, 432
433, 434, 435, 436, 437, 438, 439, 440, 441, 442, 443, 444, 445, 446, 447, 448
449, 450, 451, 452, 453, 454, 455, 456, 457, 458, 459, 460, 461, 462, 463, 464
465, 466, 467, 468, 469, 470, 471, 472, 473, 474, 475, 476, 477, 478, 479, 480
481, 482, 483, 484, 485, 486, 487, 488, 489, 490, 491, 492, 493, 494, 495, 496
497, 498, 499, 500, 501, 502, 503, 504, 505, 506, 507, 508, 509, 510, 511, 512
513, 514, 515, 516, 517, 518, 519, 520, 521, 522, 523, 524, 525, 526, 527, 528
529, 530, 531, 532, 533, 534, 535, 536, 537, 538, 539, 540, 541, 542, 543, 544
545, 546, 547, 548, 549, 550, 551, 552
*NSET, NSET=CLAMP
1, 26, 51, 76, 101, 126, 150, 172, 196, 221, 246, 271, 296, 321, 346, 371
396, 421, 446, 470, 492, 516, 541, 566, 591, 616, 641, 666, 691, 716, 741, 766
790, 812, 836, 861, 886, 911, 936
*NSET, NSET=TENSION
25, 50, 75, 100, 125, 149, 171, 195, 220, 245, 270, 295, 320, 345, 370, 395
420, 445, 469, 491, 515, 540, 565, 590, 615, 640, 665, 690, 715, 740, 765, 789
811, 835, 860, 885, 910, 935, 960
*MATERIAL, NAME=STEEL
*ELASTIC
200000000000, 0.3
*SOLID SECTION, ELSET=SOLID, MATERIAL=STEEL
,
*BOUNDARY
CLAMP, 1, 1, 0
CLAMP, 2, 2, 0
CLAMP, 3, 3, 0
*STEP, NAME=LINEAR_STATIC, NLGEOM=NO
*STATIC
1., 1., 1e-05, 1.
*CLOAD
TENSION, 1, 256.4102564102564
*OUTPUT, FIELD
*NODE OUTPUT
U, RF
*ELEMENT OUTPUT, DIRECTIONS=YES
S, E
*OUTPUT, HISTORY
*ENERGY OUTPUT
ALLSE
*END STEP
