** Aetheris AETHERIS-FEA-M5 verification deck
** Conventional C3D8 full-cell approximation; native Cut cells are omitted, never exported as full bricks.
*HEADING
PlateWithHole
*NODE
1, 0, 0, 0
2, 0.0125, 0, 0
3, 0.025, 0, 0
4, 0.037500000000000006, 0, 0
5, 0.05, 0, 0
6, 0.0625, 0, 0
7, 0.07500000000000001, 0, 0
8, 0.08750000000000001, 0, 0
9, 0.1, 0, 0
10, 0.1125, 0, 0
11, 0.125, 0, 0
12, 0.1375, 0, 0
13, 0.15000000000000002, 0, 0
14, 0.1625, 0, 0
15, 0.17500000000000002, 0, 0
16, 0.1875, 0, 0
17, 0.2, 0, 0
18, 0, 0.0125, 0
19, 0.0125, 0.0125, 0
20, 0.025, 0.0125, 0
21, 0.037500000000000006, 0.0125, 0
22, 0.05, 0.0125, 0
23, 0.0625, 0.0125, 0
24, 0.07500000000000001, 0.0125, 0
25, 0.08750000000000001, 0.0125, 0
26, 0.1, 0.0125, 0
27, 0.1125, 0.0125, 0
28, 0.125, 0.0125, 0
29, 0.1375, 0.0125, 0
30, 0.15000000000000002, 0.0125, 0
31, 0.1625, 0.0125, 0
32, 0.17500000000000002, 0.0125, 0
33, 0.1875, 0.0125, 0
34, 0.2, 0.0125, 0
35, 0, 0.025, 0
36, 0.0125, 0.025, 0
37, 0.025, 0.025, 0
38, 0.037500000000000006, 0.025, 0
39, 0.05, 0.025, 0
40, 0.0625, 0.025, 0
41, 0.07500000000000001, 0.025, 0
42, 0.08750000000000001, 0.025, 0
43, 0.1, 0.025, 0
44, 0.1125, 0.025, 0
45, 0.125, 0.025, 0
46, 0.1375, 0.025, 0
47, 0.15000000000000002, 0.025, 0
48, 0.1625, 0.025, 0
49, 0.17500000000000002, 0.025, 0
50, 0.1875, 0.025, 0
51, 0.2, 0.025, 0
52, 0, 0.037500000000000006, 0
53, 0.0125, 0.037500000000000006, 0
54, 0.025, 0.037500000000000006, 0
55, 0.037500000000000006, 0.037500000000000006, 0
56, 0.05, 0.037500000000000006, 0
57, 0.0625, 0.037500000000000006, 0
58, 0.07500000000000001, 0.037500000000000006, 0
59, 0.08750000000000001, 0.037500000000000006, 0
60, 0.1, 0.037500000000000006, 0
61, 0.1125, 0.037500000000000006, 0
62, 0.125, 0.037500000000000006, 0
63, 0.1375, 0.037500000000000006, 0
64, 0.15000000000000002, 0.037500000000000006, 0
65, 0.1625, 0.037500000000000006, 0
66, 0.17500000000000002, 0.037500000000000006, 0
67, 0.1875, 0.037500000000000006, 0
68, 0.2, 0.037500000000000006, 0
69, 0, 0.05, 0
70, 0.0125, 0.05, 0
71, 0.025, 0.05, 0
72, 0.037500000000000006, 0.05, 0
73, 0.05, 0.05, 0
74, 0.0625, 0.05, 0
75, 0.07500000000000001, 0.05, 0
76, 0.08750000000000001, 0.05, 0
77, 0.1125, 0.05, 0
78, 0.125, 0.05, 0
79, 0.1375, 0.05, 0
80, 0.15000000000000002, 0.05, 0
81, 0.1625, 0.05, 0
82, 0.17500000000000002, 0.05, 0
83, 0.1875, 0.05, 0
84, 0.2, 0.05, 0
85, 0, 0.0625, 0
86, 0.0125, 0.0625, 0
87, 0.025, 0.0625, 0
88, 0.037500000000000006, 0.0625, 0
89, 0.05, 0.0625, 0
90, 0.0625, 0.0625, 0
91, 0.07500000000000001, 0.0625, 0
92, 0.08750000000000001, 0.0625, 0
93, 0.1, 0.0625, 0
94, 0.1125, 0.0625, 0
95, 0.125, 0.0625, 0
96, 0.1375, 0.0625, 0
97, 0.15000000000000002, 0.0625, 0
98, 0.1625, 0.0625, 0
99, 0.17500000000000002, 0.0625, 0
100, 0.1875, 0.0625, 0
101, 0.2, 0.0625, 0
102, 0, 0.07500000000000001, 0
103, 0.0125, 0.07500000000000001, 0
104, 0.025, 0.07500000000000001, 0
105, 0.037500000000000006, 0.07500000000000001, 0
106, 0.05, 0.07500000000000001, 0
107, 0.0625, 0.07500000000000001, 0
108, 0.07500000000000001, 0.07500000000000001, 0
109, 0.08750000000000001, 0.07500000000000001, 0
110, 0.1, 0.07500000000000001, 0
111, 0.1125, 0.07500000000000001, 0
112, 0.125, 0.07500000000000001, 0
113, 0.1375, 0.07500000000000001, 0
114, 0.15000000000000002, 0.07500000000000001, 0
115, 0.1625, 0.07500000000000001, 0
116, 0.17500000000000002, 0.07500000000000001, 0
117, 0.1875, 0.07500000000000001, 0
118, 0.2, 0.07500000000000001, 0
119, 0, 0.08750000000000001, 0
120, 0.0125, 0.08750000000000001, 0
121, 0.025, 0.08750000000000001, 0
122, 0.037500000000000006, 0.08750000000000001, 0
123, 0.05, 0.08750000000000001, 0
124, 0.0625, 0.08750000000000001, 0
125, 0.07500000000000001, 0.08750000000000001, 0
126, 0.08750000000000001, 0.08750000000000001, 0
127, 0.1, 0.08750000000000001, 0
128, 0.1125, 0.08750000000000001, 0
129, 0.125, 0.08750000000000001, 0
130, 0.1375, 0.08750000000000001, 0
131, 0.15000000000000002, 0.08750000000000001, 0
132, 0.1625, 0.08750000000000001, 0
133, 0.17500000000000002, 0.08750000000000001, 0
134, 0.1875, 0.08750000000000001, 0
135, 0.2, 0.08750000000000001, 0
136, 0, 0.1, 0
137, 0.0125, 0.1, 0
138, 0.025, 0.1, 0
139, 0.037500000000000006, 0.1, 0
140, 0.05, 0.1, 0
141, 0.0625, 0.1, 0
142, 0.07500000000000001, 0.1, 0
143, 0.08750000000000001, 0.1, 0
144, 0.1, 0.1, 0
145, 0.1125, 0.1, 0
146, 0.125, 0.1, 0
147, 0.1375, 0.1, 0
148, 0.15000000000000002, 0.1, 0
149, 0.1625, 0.1, 0
150, 0.17500000000000002, 0.1, 0
151, 0.1875, 0.1, 0
152, 0.2, 0.1, 0
153, 0, 0, 0.005
154, 0.0125, 0, 0.005
155, 0.025, 0, 0.005
156, 0.037500000000000006, 0, 0.005
157, 0.05, 0, 0.005
158, 0.0625, 0, 0.005
159, 0.07500000000000001, 0, 0.005
160, 0.08750000000000001, 0, 0.005
161, 0.1, 0, 0.005
162, 0.1125, 0, 0.005
163, 0.125, 0, 0.005
164, 0.1375, 0, 0.005
165, 0.15000000000000002, 0, 0.005
166, 0.1625, 0, 0.005
167, 0.17500000000000002, 0, 0.005
168, 0.1875, 0, 0.005
169, 0.2, 0, 0.005
170, 0, 0.0125, 0.005
171, 0.0125, 0.0125, 0.005
172, 0.025, 0.0125, 0.005
173, 0.037500000000000006, 0.0125, 0.005
174, 0.05, 0.0125, 0.005
175, 0.0625, 0.0125, 0.005
176, 0.07500000000000001, 0.0125, 0.005
177, 0.08750000000000001, 0.0125, 0.005
178, 0.1, 0.0125, 0.005
179, 0.1125, 0.0125, 0.005
180, 0.125, 0.0125, 0.005
181, 0.1375, 0.0125, 0.005
182, 0.15000000000000002, 0.0125, 0.005
183, 0.1625, 0.0125, 0.005
184, 0.17500000000000002, 0.0125, 0.005
185, 0.1875, 0.0125, 0.005
186, 0.2, 0.0125, 0.005
187, 0, 0.025, 0.005
188, 0.0125, 0.025, 0.005
189, 0.025, 0.025, 0.005
190, 0.037500000000000006, 0.025, 0.005
191, 0.05, 0.025, 0.005
192, 0.0625, 0.025, 0.005
193, 0.07500000000000001, 0.025, 0.005
194, 0.08750000000000001, 0.025, 0.005
195, 0.1, 0.025, 0.005
196, 0.1125, 0.025, 0.005
197, 0.125, 0.025, 0.005
198, 0.1375, 0.025, 0.005
199, 0.15000000000000002, 0.025, 0.005
200, 0.1625, 0.025, 0.005
201, 0.17500000000000002, 0.025, 0.005
202, 0.1875, 0.025, 0.005
203, 0.2, 0.025, 0.005
204, 0, 0.037500000000000006, 0.005
205, 0.0125, 0.037500000000000006, 0.005
206, 0.025, 0.037500000000000006, 0.005
207, 0.037500000000000006, 0.037500000000000006, 0.005
208, 0.05, 0.037500000000000006, 0.005
209, 0.0625, 0.037500000000000006, 0.005
210, 0.07500000000000001, 0.037500000000000006, 0.005
211, 0.08750000000000001, 0.037500000000000006, 0.005
212, 0.1, 0.037500000000000006, 0.005
213, 0.1125, 0.037500000000000006, 0.005
214, 0.125, 0.037500000000000006, 0.005
215, 0.1375, 0.037500000000000006, 0.005
216, 0.15000000000000002, 0.037500000000000006, 0.005
217, 0.1625, 0.037500000000000006, 0.005
218, 0.17500000000000002, 0.037500000000000006, 0.005
219, 0.1875, 0.037500000000000006, 0.005
220, 0.2, 0.037500000000000006, 0.005
221, 0, 0.05, 0.005
222, 0.0125, 0.05, 0.005
223, 0.025, 0.05, 0.005
224, 0.037500000000000006, 0.05, 0.005
225, 0.05, 0.05, 0.005
226, 0.0625, 0.05, 0.005
227, 0.07500000000000001, 0.05, 0.005
228, 0.08750000000000001, 0.05, 0.005
229, 0.1125, 0.05, 0.005
230, 0.125, 0.05, 0.005
231, 0.1375, 0.05, 0.005
232, 0.15000000000000002, 0.05, 0.005
233, 0.1625, 0.05, 0.005
234, 0.17500000000000002, 0.05, 0.005
235, 0.1875, 0.05, 0.005
236, 0.2, 0.05, 0.005
237, 0, 0.0625, 0.005
238, 0.0125, 0.0625, 0.005
239, 0.025, 0.0625, 0.005
240, 0.037500000000000006, 0.0625, 0.005
241, 0.05, 0.0625, 0.005
242, 0.0625, 0.0625, 0.005
243, 0.07500000000000001, 0.0625, 0.005
244, 0.08750000000000001, 0.0625, 0.005
245, 0.1, 0.0625, 0.005
246, 0.1125, 0.0625, 0.005
247, 0.125, 0.0625, 0.005
248, 0.1375, 0.0625, 0.005
249, 0.15000000000000002, 0.0625, 0.005
250, 0.1625, 0.0625, 0.005
251, 0.17500000000000002, 0.0625, 0.005
252, 0.1875, 0.0625, 0.005
253, 0.2, 0.0625, 0.005
254, 0, 0.07500000000000001, 0.005
255, 0.0125, 0.07500000000000001, 0.005
256, 0.025, 0.07500000000000001, 0.005
257, 0.037500000000000006, 0.07500000000000001, 0.005
258, 0.05, 0.07500000000000001, 0.005
259, 0.0625, 0.07500000000000001, 0.005
260, 0.07500000000000001, 0.07500000000000001, 0.005
261, 0.08750000000000001, 0.07500000000000001, 0.005
262, 0.1, 0.07500000000000001, 0.005
263, 0.1125, 0.07500000000000001, 0.005
264, 0.125, 0.07500000000000001, 0.005
265, 0.1375, 0.07500000000000001, 0.005
266, 0.15000000000000002, 0.07500000000000001, 0.005
267, 0.1625, 0.07500000000000001, 0.005
268, 0.17500000000000002, 0.07500000000000001, 0.005
269, 0.1875, 0.07500000000000001, 0.005
270, 0.2, 0.07500000000000001, 0.005
271, 0, 0.08750000000000001, 0.005
272, 0.0125, 0.08750000000000001, 0.005
273, 0.025, 0.08750000000000001, 0.005
274, 0.037500000000000006, 0.08750000000000001, 0.005
275, 0.05, 0.08750000000000001, 0.005
276, 0.0625, 0.08750000000000001, 0.005
277, 0.07500000000000001, 0.08750000000000001, 0.005
278, 0.08750000000000001, 0.08750000000000001, 0.005
279, 0.1, 0.08750000000000001, 0.005
280, 0.1125, 0.08750000000000001, 0.005
281, 0.125, 0.08750000000000001, 0.005
282, 0.1375, 0.08750000000000001, 0.005
283, 0.15000000000000002, 0.08750000000000001, 0.005
284, 0.1625, 0.08750000000000001, 0.005
285, 0.17500000000000002, 0.08750000000000001, 0.005
286, 0.1875, 0.08750000000000001, 0.005
287, 0.2, 0.08750000000000001, 0.005
288, 0, 0.1, 0.005
289, 0.0125, 0.1, 0.005
290, 0.025, 0.1, 0.005
291, 0.037500000000000006, 0.1, 0.005
292, 0.05, 0.1, 0.005
293, 0.0625, 0.1, 0.005
294, 0.07500000000000001, 0.1, 0.005
295, 0.08750000000000001, 0.1, 0.005
296, 0.1, 0.1, 0.005
297, 0.1125, 0.1, 0.005
298, 0.125, 0.1, 0.005
299, 0.1375, 0.1, 0.005
300, 0.15000000000000002, 0.1, 0.005
301, 0.1625, 0.1, 0.005
302, 0.17500000000000002, 0.1, 0.005
303, 0.1875, 0.1, 0.005
304, 0.2, 0.1, 0.005
305, 0, 0, 0.01
306, 0.0125, 0, 0.01
307, 0.025, 0, 0.01
308, 0.037500000000000006, 0, 0.01
309, 0.05, 0, 0.01
310, 0.0625, 0, 0.01
311, 0.07500000000000001, 0, 0.01
312, 0.08750000000000001, 0, 0.01
313, 0.1, 0, 0.01
314, 0.1125, 0, 0.01
315, 0.125, 0, 0.01
316, 0.1375, 0, 0.01
317, 0.15000000000000002, 0, 0.01
318, 0.1625, 0, 0.01
319, 0.17500000000000002, 0, 0.01
320, 0.1875, 0, 0.01
321, 0.2, 0, 0.01
322, 0, 0.0125, 0.01
323, 0.0125, 0.0125, 0.01
324, 0.025, 0.0125, 0.01
325, 0.037500000000000006, 0.0125, 0.01
326, 0.05, 0.0125, 0.01
327, 0.0625, 0.0125, 0.01
328, 0.07500000000000001, 0.0125, 0.01
329, 0.08750000000000001, 0.0125, 0.01
330, 0.1, 0.0125, 0.01
331, 0.1125, 0.0125, 0.01
332, 0.125, 0.0125, 0.01
333, 0.1375, 0.0125, 0.01
334, 0.15000000000000002, 0.0125, 0.01
335, 0.1625, 0.0125, 0.01
336, 0.17500000000000002, 0.0125, 0.01
337, 0.1875, 0.0125, 0.01
338, 0.2, 0.0125, 0.01
339, 0, 0.025, 0.01
340, 0.0125, 0.025, 0.01
341, 0.025, 0.025, 0.01
342, 0.037500000000000006, 0.025, 0.01
343, 0.05, 0.025, 0.01
344, 0.0625, 0.025, 0.01
345, 0.07500000000000001, 0.025, 0.01
346, 0.08750000000000001, 0.025, 0.01
347, 0.1, 0.025, 0.01
348, 0.1125, 0.025, 0.01
349, 0.125, 0.025, 0.01
350, 0.1375, 0.025, 0.01
351, 0.15000000000000002, 0.025, 0.01
352, 0.1625, 0.025, 0.01
353, 0.17500000000000002, 0.025, 0.01
354, 0.1875, 0.025, 0.01
355, 0.2, 0.025, 0.01
356, 0, 0.037500000000000006, 0.01
357, 0.0125, 0.037500000000000006, 0.01
358, 0.025, 0.037500000000000006, 0.01
359, 0.037500000000000006, 0.037500000000000006, 0.01
360, 0.05, 0.037500000000000006, 0.01
361, 0.0625, 0.037500000000000006, 0.01
362, 0.07500000000000001, 0.037500000000000006, 0.01
363, 0.08750000000000001, 0.037500000000000006, 0.01
364, 0.1, 0.037500000000000006, 0.01
365, 0.1125, 0.037500000000000006, 0.01
366, 0.125, 0.037500000000000006, 0.01
367, 0.1375, 0.037500000000000006, 0.01
368, 0.15000000000000002, 0.037500000000000006, 0.01
369, 0.1625, 0.037500000000000006, 0.01
370, 0.17500000000000002, 0.037500000000000006, 0.01
371, 0.1875, 0.037500000000000006, 0.01
372, 0.2, 0.037500000000000006, 0.01
373, 0, 0.05, 0.01
374, 0.0125, 0.05, 0.01
375, 0.025, 0.05, 0.01
376, 0.037500000000000006, 0.05, 0.01
377, 0.05, 0.05, 0.01
378, 0.0625, 0.05, 0.01
379, 0.07500000000000001, 0.05, 0.01
380, 0.08750000000000001, 0.05, 0.01
381, 0.1125, 0.05, 0.01
382, 0.125, 0.05, 0.01
383, 0.1375, 0.05, 0.01
384, 0.15000000000000002, 0.05, 0.01
385, 0.1625, 0.05, 0.01
386, 0.17500000000000002, 0.05, 0.01
387, 0.1875, 0.05, 0.01
388, 0.2, 0.05, 0.01
389, 0, 0.0625, 0.01
390, 0.0125, 0.0625, 0.01
391, 0.025, 0.0625, 0.01
392, 0.037500000000000006, 0.0625, 0.01
393, 0.05, 0.0625, 0.01
394, 0.0625, 0.0625, 0.01
395, 0.07500000000000001, 0.0625, 0.01
396, 0.08750000000000001, 0.0625, 0.01
397, 0.1, 0.0625, 0.01
398, 0.1125, 0.0625, 0.01
399, 0.125, 0.0625, 0.01
400, 0.1375, 0.0625, 0.01
401, 0.15000000000000002, 0.0625, 0.01
402, 0.1625, 0.0625, 0.01
403, 0.17500000000000002, 0.0625, 0.01
404, 0.1875, 0.0625, 0.01
405, 0.2, 0.0625, 0.01
406, 0, 0.07500000000000001, 0.01
407, 0.0125, 0.07500000000000001, 0.01
408, 0.025, 0.07500000000000001, 0.01
409, 0.037500000000000006, 0.07500000000000001, 0.01
410, 0.05, 0.07500000000000001, 0.01
411, 0.0625, 0.07500000000000001, 0.01
412, 0.07500000000000001, 0.07500000000000001, 0.01
413, 0.08750000000000001, 0.07500000000000001, 0.01
414, 0.1, 0.07500000000000001, 0.01
415, 0.1125, 0.07500000000000001, 0.01
416, 0.125, 0.07500000000000001, 0.01
417, 0.1375, 0.07500000000000001, 0.01
418, 0.15000000000000002, 0.07500000000000001, 0.01
419, 0.1625, 0.07500000000000001, 0.01
420, 0.17500000000000002, 0.07500000000000001, 0.01
421, 0.1875, 0.07500000000000001, 0.01
422, 0.2, 0.07500000000000001, 0.01
423, 0, 0.08750000000000001, 0.01
424, 0.0125, 0.08750000000000001, 0.01
425, 0.025, 0.08750000000000001, 0.01
426, 0.037500000000000006, 0.08750000000000001, 0.01
427, 0.05, 0.08750000000000001, 0.01
428, 0.0625, 0.08750000000000001, 0.01
429, 0.07500000000000001, 0.08750000000000001, 0.01
430, 0.08750000000000001, 0.08750000000000001, 0.01
431, 0.1, 0.08750000000000001, 0.01
432, 0.1125, 0.08750000000000001, 0.01
433, 0.125, 0.08750000000000001, 0.01
434, 0.1375, 0.08750000000000001, 0.01
435, 0.15000000000000002, 0.08750000000000001, 0.01
436, 0.1625, 0.08750000000000001, 0.01
437, 0.17500000000000002, 0.08750000000000001, 0.01
438, 0.1875, 0.08750000000000001, 0.01
439, 0.2, 0.08750000000000001, 0.01
440, 0, 0.1, 0.01
441, 0.0125, 0.1, 0.01
442, 0.025, 0.1, 0.01
443, 0.037500000000000006, 0.1, 0.01
444, 0.05, 0.1, 0.01
445, 0.0625, 0.1, 0.01
446, 0.07500000000000001, 0.1, 0.01
447, 0.08750000000000001, 0.1, 0.01
448, 0.1, 0.1, 0.01
449, 0.1125, 0.1, 0.01
450, 0.125, 0.1, 0.01
451, 0.1375, 0.1, 0.01
452, 0.15000000000000002, 0.1, 0.01
453, 0.1625, 0.1, 0.01
454, 0.17500000000000002, 0.1, 0.01
455, 0.1875, 0.1, 0.01
456, 0.2, 0.1, 0.01
*ELEMENT, TYPE=C3D8, ELSET=SOLID
1, 1, 2, 19, 18, 153, 154, 171, 170
2, 2, 3, 20, 19, 154, 155, 172, 171
3, 3, 4, 21, 20, 155, 156, 173, 172
4, 4, 5, 22, 21, 156, 157, 174, 173
5, 5, 6, 23, 22, 157, 158, 175, 174
6, 6, 7, 24, 23, 158, 159, 176, 175
7, 7, 8, 25, 24, 159, 160, 177, 176
8, 8, 9, 26, 25, 160, 161, 178, 177
9, 9, 10, 27, 26, 161, 162, 179, 178
10, 10, 11, 28, 27, 162, 163, 180, 179
11, 11, 12, 29, 28, 163, 164, 181, 180
12, 12, 13, 30, 29, 164, 165, 182, 181
13, 13, 14, 31, 30, 165, 166, 183, 182
14, 14, 15, 32, 31, 166, 167, 184, 183
15, 15, 16, 33, 32, 167, 168, 185, 184
16, 16, 17, 34, 33, 168, 169, 186, 185
17, 18, 19, 36, 35, 170, 171, 188, 187
18, 19, 20, 37, 36, 171, 172, 189, 188
19, 20, 21, 38, 37, 172, 173, 190, 189
20, 21, 22, 39, 38, 173, 174, 191, 190
21, 22, 23, 40, 39, 174, 175, 192, 191
22, 23, 24, 41, 40, 175, 176, 193, 192
23, 24, 25, 42, 41, 176, 177, 194, 193
24, 25, 26, 43, 42, 177, 178, 195, 194
25, 26, 27, 44, 43, 178, 179, 196, 195
26, 27, 28, 45, 44, 179, 180, 197, 196
27, 28, 29, 46, 45, 180, 181, 198, 197
28, 29, 30, 47, 46, 181, 182, 199, 198
29, 30, 31, 48, 47, 182, 183, 200, 199
30, 31, 32, 49, 48, 183, 184, 201, 200
31, 32, 33, 50, 49, 184, 185, 202, 201
32, 33, 34, 51, 50, 185, 186, 203, 202
33, 35, 36, 53, 52, 187, 188, 205, 204
34, 36, 37, 54, 53, 188, 189, 206, 205
35, 37, 38, 55, 54, 189, 190, 207, 206
36, 38, 39, 56, 55, 190, 191, 208, 207
37, 39, 40, 57, 56, 191, 192, 209, 208
38, 40, 41, 58, 57, 192, 193, 210, 209
39, 41, 42, 59, 58, 193, 194, 211, 210
40, 42, 43, 60, 59, 194, 195, 212, 211
41, 43, 44, 61, 60, 195, 196, 213, 212
42, 44, 45, 62, 61, 196, 197, 214, 213
43, 45, 46, 63, 62, 197, 198, 215, 214
44, 46, 47, 64, 63, 198, 199, 216, 215
45, 47, 48, 65, 64, 199, 200, 217, 216
46, 48, 49, 66, 65, 200, 201, 218, 217
47, 49, 50, 67, 66, 201, 202, 219, 218
48, 50, 51, 68, 67, 202, 203, 220, 219
49, 52, 53, 70, 69, 204, 205, 222, 221
50, 53, 54, 71, 70, 205, 206, 223, 222
51, 54, 55, 72, 71, 206, 207, 224, 223
52, 55, 56, 73, 72, 207, 208, 225, 224
53, 56, 57, 74, 73, 208, 209, 226, 225
54, 57, 58, 75, 74, 209, 210, 227, 226
55, 58, 59, 76, 75, 210, 211, 228, 227
56, 61, 62, 78, 77, 213, 214, 230, 229
57, 62, 63, 79, 78, 214, 215, 231, 230
58, 63, 64, 80, 79, 215, 216, 232, 231
59, 64, 65, 81, 80, 216, 217, 233, 232
60, 65, 66, 82, 81, 217, 218, 234, 233
61, 66, 67, 83, 82, 218, 219, 235, 234
62, 67, 68, 84, 83, 219, 220, 236, 235
63, 69, 70, 86, 85, 221, 222, 238, 237
64, 70, 71, 87, 86, 222, 223, 239, 238
65, 71, 72, 88, 87, 223, 224, 240, 239
66, 72, 73, 89, 88, 224, 225, 241, 240
67, 73, 74, 90, 89, 225, 226, 242, 241
68, 74, 75, 91, 90, 226, 227, 243, 242
69, 75, 76, 92, 91, 227, 228, 244, 243
70, 77, 78, 95, 94, 229, 230, 247, 246
71, 78, 79, 96, 95, 230, 231, 248, 247
72, 79, 80, 97, 96, 231, 232, 249, 248
73, 80, 81, 98, 97, 232, 233, 250, 249
74, 81, 82, 99, 98, 233, 234, 251, 250
75, 82, 83, 100, 99, 234, 235, 252, 251
76, 83, 84, 101, 100, 235, 236, 253, 252
77, 85, 86, 103, 102, 237, 238, 255, 254
78, 86, 87, 104, 103, 238, 239, 256, 255
79, 87, 88, 105, 104, 239, 240, 257, 256
80, 88, 89, 106, 105, 240, 241, 258, 257
81, 89, 90, 107, 106, 241, 242, 259, 258
82, 90, 91, 108, 107, 242, 243, 260, 259
83, 91, 92, 109, 108, 243, 244, 261, 260
84, 92, 93, 110, 109, 244, 245, 262, 261
85, 93, 94, 111, 110, 245, 246, 263, 262
86, 94, 95, 112, 111, 246, 247, 264, 263
87, 95, 96, 113, 112, 247, 248, 265, 264
88, 96, 97, 114, 113, 248, 249, 266, 265
89, 97, 98, 115, 114, 249, 250, 267, 266
90, 98, 99, 116, 115, 250, 251, 268, 267
91, 99, 100, 117, 116, 251, 252, 269, 268
92, 100, 101, 118, 117, 252, 253, 270, 269
93, 102, 103, 120, 119, 254, 255, 272, 271
94, 103, 104, 121, 120, 255, 256, 273, 272
95, 104, 105, 122, 121, 256, 257, 274, 273
96, 105, 106, 123, 122, 257, 258, 275, 274
97, 106, 107, 124, 123, 258, 259, 276, 275
98, 107, 108, 125, 124, 259, 260, 277, 276
99, 108, 109, 126, 125, 260, 261, 278, 277
100, 109, 110, 127, 126, 261, 262, 279, 278
101, 110, 111, 128, 127, 262, 263, 280, 279
102, 111, 112, 129, 128, 263, 264, 281, 280
103, 112, 113, 130, 129, 264, 265, 282, 281
104, 113, 114, 131, 130, 265, 266, 283, 282
105, 114, 115, 132, 131, 266, 267, 284, 283
106, 115, 116, 133, 132, 267, 268, 285, 284
107, 116, 117, 134, 133, 268, 269, 286, 285
108, 117, 118, 135, 134, 269, 270, 287, 286
109, 119, 120, 137, 136, 271, 272, 289, 288
110, 120, 121, 138, 137, 272, 273, 290, 289
111, 121, 122, 139, 138, 273, 274, 291, 290
112, 122, 123, 140, 139, 274, 275, 292, 291
113, 123, 124, 141, 140, 275, 276, 293, 292
114, 124, 125, 142, 141, 276, 277, 294, 293
115, 125, 126, 143, 142, 277, 278, 295, 294
116, 126, 127, 144, 143, 278, 279, 296, 295
117, 127, 128, 145, 144, 279, 280, 297, 296
118, 128, 129, 146, 145, 280, 281, 298, 297
119, 129, 130, 147, 146, 281, 282, 299, 298
120, 130, 131, 148, 147, 282, 283, 300, 299
121, 131, 132, 149, 148, 283, 284, 301, 300
122, 132, 133, 150, 149, 284, 285, 302, 301
123, 133, 134, 151, 150, 285, 286, 303, 302
124, 134, 135, 152, 151, 286, 287, 304, 303
125, 153, 154, 171, 170, 305, 306, 323, 322
126, 154, 155, 172, 171, 306, 307, 324, 323
127, 155, 156, 173, 172, 307, 308, 325, 324
128, 156, 157, 174, 173, 308, 309, 326, 325
129, 157, 158, 175, 174, 309, 310, 327, 326
130, 158, 159, 176, 175, 310, 311, 328, 327
131, 159, 160, 177, 176, 311, 312, 329, 328
132, 160, 161, 178, 177, 312, 313, 330, 329
133, 161, 162, 179, 178, 313, 314, 331, 330
134, 162, 163, 180, 179, 314, 315, 332, 331
135, 163, 164, 181, 180, 315, 316, 333, 332
136, 164, 165, 182, 181, 316, 317, 334, 333
137, 165, 166, 183, 182, 317, 318, 335, 334
138, 166, 167, 184, 183, 318, 319, 336, 335
139, 167, 168, 185, 184, 319, 320, 337, 336
140, 168, 169, 186, 185, 320, 321, 338, 337
141, 170, 171, 188, 187, 322, 323, 340, 339
142, 171, 172, 189, 188, 323, 324, 341, 340
143, 172, 173, 190, 189, 324, 325, 342, 341
144, 173, 174, 191, 190, 325, 326, 343, 342
145, 174, 175, 192, 191, 326, 327, 344, 343
146, 175, 176, 193, 192, 327, 328, 345, 344
147, 176, 177, 194, 193, 328, 329, 346, 345
148, 177, 178, 195, 194, 329, 330, 347, 346
149, 178, 179, 196, 195, 330, 331, 348, 347
150, 179, 180, 197, 196, 331, 332, 349, 348
151, 180, 181, 198, 197, 332, 333, 350, 349
152, 181, 182, 199, 198, 333, 334, 351, 350
153, 182, 183, 200, 199, 334, 335, 352, 351
154, 183, 184, 201, 200, 335, 336, 353, 352
155, 184, 185, 202, 201, 336, 337, 354, 353
156, 185, 186, 203, 202, 337, 338, 355, 354
157, 187, 188, 205, 204, 339, 340, 357, 356
158, 188, 189, 206, 205, 340, 341, 358, 357
159, 189, 190, 207, 206, 341, 342, 359, 358
160, 190, 191, 208, 207, 342, 343, 360, 359
161, 191, 192, 209, 208, 343, 344, 361, 360
162, 192, 193, 210, 209, 344, 345, 362, 361
163, 193, 194, 211, 210, 345, 346, 363, 362
164, 194, 195, 212, 211, 346, 347, 364, 363
165, 195, 196, 213, 212, 347, 348, 365, 364
166, 196, 197, 214, 213, 348, 349, 366, 365
167, 197, 198, 215, 214, 349, 350, 367, 366
168, 198, 199, 216, 215, 350, 351, 368, 367
169, 199, 200, 217, 216, 351, 352, 369, 368
170, 200, 201, 218, 217, 352, 353, 370, 369
171, 201, 202, 219, 218, 353, 354, 371, 370
172, 202, 203, 220, 219, 354, 355, 372, 371
173, 204, 205, 222, 221, 356, 357, 374, 373
174, 205, 206, 223, 222, 357, 358, 375, 374
175, 206, 207, 224, 223, 358, 359, 376, 375
176, 207, 208, 225, 224, 359, 360, 377, 376
177, 208, 209, 226, 225, 360, 361, 378, 377
178, 209, 210, 227, 226, 361, 362, 379, 378
179, 210, 211, 228, 227, 362, 363, 380, 379
180, 213, 214, 230, 229, 365, 366, 382, 381
181, 214, 215, 231, 230, 366, 367, 383, 382
182, 215, 216, 232, 231, 367, 368, 384, 383
183, 216, 217, 233, 232, 368, 369, 385, 384
184, 217, 218, 234, 233, 369, 370, 386, 385
185, 218, 219, 235, 234, 370, 371, 387, 386
186, 219, 220, 236, 235, 371, 372, 388, 387
187, 221, 222, 238, 237, 373, 374, 390, 389
188, 222, 223, 239, 238, 374, 375, 391, 390
189, 223, 224, 240, 239, 375, 376, 392, 391
190, 224, 225, 241, 240, 376, 377, 393, 392
191, 225, 226, 242, 241, 377, 378, 394, 393
192, 226, 227, 243, 242, 378, 379, 395, 394
193, 227, 228, 244, 243, 379, 380, 396, 395
194, 229, 230, 247, 246, 381, 382, 399, 398
195, 230, 231, 248, 247, 382, 383, 400, 399
196, 231, 232, 249, 248, 383, 384, 401, 400
197, 232, 233, 250, 249, 384, 385, 402, 401
198, 233, 234, 251, 250, 385, 386, 403, 402
199, 234, 235, 252, 251, 386, 387, 404, 403
200, 235, 236, 253, 252, 387, 388, 405, 404
201, 237, 238, 255, 254, 389, 390, 407, 406
202, 238, 239, 256, 255, 390, 391, 408, 407
203, 239, 240, 257, 256, 391, 392, 409, 408
204, 240, 241, 258, 257, 392, 393, 410, 409
205, 241, 242, 259, 258, 393, 394, 411, 410
206, 242, 243, 260, 259, 394, 395, 412, 411
207, 243, 244, 261, 260, 395, 396, 413, 412
208, 244, 245, 262, 261, 396, 397, 414, 413
209, 245, 246, 263, 262, 397, 398, 415, 414
210, 246, 247, 264, 263, 398, 399, 416, 415
211, 247, 248, 265, 264, 399, 400, 417, 416
212, 248, 249, 266, 265, 400, 401, 418, 417
213, 249, 250, 267, 266, 401, 402, 419, 418
214, 250, 251, 268, 267, 402, 403, 420, 419
215, 251, 252, 269, 268, 403, 404, 421, 420
216, 252, 253, 270, 269, 404, 405, 422, 421
217, 254, 255, 272, 271, 406, 407, 424, 423
218, 255, 256, 273, 272, 407, 408, 425, 424
219, 256, 257, 274, 273, 408, 409, 426, 425
220, 257, 258, 275, 274, 409, 410, 427, 426
221, 258, 259, 276, 275, 410, 411, 428, 427
222, 259, 260, 277, 276, 411, 412, 429, 428
223, 260, 261, 278, 277, 412, 413, 430, 429
224, 261, 262, 279, 278, 413, 414, 431, 430
225, 262, 263, 280, 279, 414, 415, 432, 431
226, 263, 264, 281, 280, 415, 416, 433, 432
227, 264, 265, 282, 281, 416, 417, 434, 433
228, 265, 266, 283, 282, 417, 418, 435, 434
229, 266, 267, 284, 283, 418, 419, 436, 435
230, 267, 268, 285, 284, 419, 420, 437, 436
231, 268, 269, 286, 285, 420, 421, 438, 437
232, 269, 270, 287, 286, 421, 422, 439, 438
233, 271, 272, 289, 288, 423, 424, 441, 440
234, 272, 273, 290, 289, 424, 425, 442, 441
235, 273, 274, 291, 290, 425, 426, 443, 442
236, 274, 275, 292, 291, 426, 427, 444, 443
237, 275, 276, 293, 292, 427, 428, 445, 444
238, 276, 277, 294, 293, 428, 429, 446, 445
239, 277, 278, 295, 294, 429, 430, 447, 446
240, 278, 279, 296, 295, 430, 431, 448, 447
241, 279, 280, 297, 296, 431, 432, 449, 448
242, 280, 281, 298, 297, 432, 433, 450, 449
243, 281, 282, 299, 298, 433, 434, 451, 450
244, 282, 283, 300, 299, 434, 435, 452, 451
245, 283, 284, 301, 300, 435, 436, 453, 452
246, 284, 285, 302, 301, 436, 437, 454, 453
247, 285, 286, 303, 302, 437, 438, 455, 454
248, 286, 287, 304, 303, 438, 439, 456, 455
*ELSET, ELSET=SOLID
1, 2, 3, 4, 5, 6, 7, 8, 9, 10, 11, 12, 13, 14, 15, 16
17, 18, 19, 20, 21, 22, 23, 24, 25, 26, 27, 28, 29, 30, 31, 32
33, 34, 35, 36, 37, 38, 39, 40, 41, 42, 43, 44, 45, 46, 47, 48
49, 50, 51, 52, 53, 54, 55, 56, 57, 58, 59, 60, 61, 62, 63, 64
65, 66, 67, 68, 69, 70, 71, 72, 73, 74, 75, 76, 77, 78, 79, 80
81, 82, 83, 84, 85, 86, 87, 88, 89, 90, 91, 92, 93, 94, 95, 96
97, 98, 99, 100, 101, 102, 103, 104, 105, 106, 107, 108, 109, 110, 111, 112
113, 114, 115, 116, 117, 118, 119, 120, 121, 122, 123, 124, 125, 126, 127, 128
129, 130, 131, 132, 133, 134, 135, 136, 137, 138, 139, 140, 141, 142, 143, 144
145, 146, 147, 148, 149, 150, 151, 152, 153, 154, 155, 156, 157, 158, 159, 160
161, 162, 163, 164, 165, 166, 167, 168, 169, 170, 171, 172, 173, 174, 175, 176
177, 178, 179, 180, 181, 182, 183, 184, 185, 186, 187, 188, 189, 190, 191, 192
193, 194, 195, 196, 197, 198, 199, 200, 201, 202, 203, 204, 205, 206, 207, 208
209, 210, 211, 212, 213, 214, 215, 216, 217, 218, 219, 220, 221, 222, 223, 224
225, 226, 227, 228, 229, 230, 231, 232, 233, 234, 235, 236, 237, 238, 239, 240
241, 242, 243, 244, 245, 246, 247, 248
*NSET, NSET=CLAMP
1, 18, 35, 52, 69, 85, 102, 119, 136, 153, 170, 187, 204, 221, 237, 254
271, 288, 305, 322, 339, 356, 373, 389, 406, 423, 440
*NSET, NSET=TENSION
17, 34, 51, 68, 84, 101, 118, 135, 152, 169, 186, 203, 220, 236, 253, 270
287, 304, 321, 338, 355, 372, 388, 405, 422, 439, 456
*MATERIAL, NAME=STEEL
*ELASTIC
200000000000, 0.3
*DENSITY
7850
*SOLID SECTION, ELSET=SOLID, MATERIAL=STEEL
,
*BOUNDARY
CLAMP, 1, 1, 0
CLAMP, 2, 2, 0
CLAMP, 3, 3, 0
*STEP, NAME=LINEAR_STATIC, NLGEOM=NO
*STATIC
1., 1., 1e-05, 1.
*CLOAD
TENSION, 1, 370.3703703703704
*OUTPUT, FIELD
*NODE OUTPUT
U, RF
*ELEMENT OUTPUT, DIRECTIONS=YES
S, E
*OUTPUT, HISTORY
*ENERGY OUTPUT
ALLSE
*END STEP
