** Aetheris AETHERIS-FEA-M5 verification deck
** Conventional C3D8 full-cell approximation; native Cut cells are omitted, never exported as full bricks.
*HEADING
PlateHoleCoarseAnalysis
*NODE
1, 0, 0, 0
2, 0.025, 0, 0
3, 0.05, 0, 0
4, 0.07500000000000001, 0, 0
5, 0.1, 0, 0
6, 0.125, 0, 0
7, 0.15000000000000002, 0, 0
8, 0.17500000000000002, 0, 0
9, 0.2, 0, 0
10, 0, 0.025, 0
11, 0.025, 0.025, 0
12, 0.05, 0.025, 0
13, 0.07500000000000001, 0.025, 0
14, 0.1, 0.025, 0
15, 0.125, 0.025, 0
16, 0.15000000000000002, 0.025, 0
17, 0.17500000000000002, 0.025, 0
18, 0.2, 0.025, 0
19, 0, 0.05, 0
20, 0.025, 0.05, 0
21, 0.05, 0.05, 0
22, 0.07500000000000001, 0.05, 0
23, 0.125, 0.05, 0
24, 0.15000000000000002, 0.05, 0
25, 0.17500000000000002, 0.05, 0
26, 0.2, 0.05, 0
27, 0, 0.07500000000000001, 0
28, 0.025, 0.07500000000000001, 0
29, 0.05, 0.07500000000000001, 0
30, 0.07500000000000001, 0.07500000000000001, 0
31, 0.1, 0.07500000000000001, 0
32, 0.125, 0.07500000000000001, 0
33, 0.15000000000000002, 0.07500000000000001, 0
34, 0.17500000000000002, 0.07500000000000001, 0
35, 0.2, 0.07500000000000001, 0
36, 0, 0.1, 0
37, 0.025, 0.1, 0
38, 0.05, 0.1, 0
39, 0.07500000000000001, 0.1, 0
40, 0.1, 0.1, 0
41, 0.125, 0.1, 0
42, 0.15000000000000002, 0.1, 0
43, 0.17500000000000002, 0.1, 0
44, 0.2, 0.1, 0
45, 0, 0, 0.01
46, 0.025, 0, 0.01
47, 0.05, 0, 0.01
48, 0.07500000000000001, 0, 0.01
49, 0.1, 0, 0.01
50, 0.125, 0, 0.01
51, 0.15000000000000002, 0, 0.01
52, 0.17500000000000002, 0, 0.01
53, 0.2, 0, 0.01
54, 0, 0.025, 0.01
55, 0.025, 0.025, 0.01
56, 0.05, 0.025, 0.01
57, 0.07500000000000001, 0.025, 0.01
58, 0.1, 0.025, 0.01
59, 0.125, 0.025, 0.01
60, 0.15000000000000002, 0.025, 0.01
61, 0.17500000000000002, 0.025, 0.01
62, 0.2, 0.025, 0.01
63, 0, 0.05, 0.01
64, 0.025, 0.05, 0.01
65, 0.05, 0.05, 0.01
66, 0.07500000000000001, 0.05, 0.01
67, 0.125, 0.05, 0.01
68, 0.15000000000000002, 0.05, 0.01
69, 0.17500000000000002, 0.05, 0.01
70, 0.2, 0.05, 0.01
71, 0, 0.07500000000000001, 0.01
72, 0.025, 0.07500000000000001, 0.01
73, 0.05, 0.07500000000000001, 0.01
74, 0.07500000000000001, 0.07500000000000001, 0.01
75, 0.1, 0.07500000000000001, 0.01
76, 0.125, 0.07500000000000001, 0.01
77, 0.15000000000000002, 0.07500000000000001, 0.01
78, 0.17500000000000002, 0.07500000000000001, 0.01
79, 0.2, 0.07500000000000001, 0.01
80, 0, 0.1, 0.01
81, 0.025, 0.1, 0.01
82, 0.05, 0.1, 0.01
83, 0.07500000000000001, 0.1, 0.01
84, 0.1, 0.1, 0.01
85, 0.125, 0.1, 0.01
86, 0.15000000000000002, 0.1, 0.01
87, 0.17500000000000002, 0.1, 0.01
88, 0.2, 0.1, 0.01
*ELEMENT, TYPE=C3D8, ELSET=SOLID
1, 1, 2, 11, 10, 45, 46, 55, 54
2, 2, 3, 12, 11, 46, 47, 56, 55
3, 3, 4, 13, 12, 47, 48, 57, 56
4, 4, 5, 14, 13, 48, 49, 58, 57
5, 5, 6, 15, 14, 49, 50, 59, 58
6, 6, 7, 16, 15, 50, 51, 60, 59
7, 7, 8, 17, 16, 51, 52, 61, 60
8, 8, 9, 18, 17, 52, 53, 62, 61
9, 10, 11, 20, 19, 54, 55, 64, 63
10, 11, 12, 21, 20, 55, 56, 65, 64
11, 12, 13, 22, 21, 56, 57, 66, 65
12, 15, 16, 24, 23, 59, 60, 68, 67
13, 16, 17, 25, 24, 60, 61, 69, 68
14, 17, 18, 26, 25, 61, 62, 70, 69
15, 19, 20, 28, 27, 63, 64, 72, 71
16, 20, 21, 29, 28, 64, 65, 73, 72
17, 21, 22, 30, 29, 65, 66, 74, 73
18, 23, 24, 33, 32, 67, 68, 77, 76
19, 24, 25, 34, 33, 68, 69, 78, 77
20, 25, 26, 35, 34, 69, 70, 79, 78
21, 27, 28, 37, 36, 71, 72, 81, 80
22, 28, 29, 38, 37, 72, 73, 82, 81
23, 29, 30, 39, 38, 73, 74, 83, 82
24, 30, 31, 40, 39, 74, 75, 84, 83
25, 31, 32, 41, 40, 75, 76, 85, 84
26, 32, 33, 42, 41, 76, 77, 86, 85
27, 33, 34, 43, 42, 77, 78, 87, 86
28, 34, 35, 44, 43, 78, 79, 88, 87
*ELSET, ELSET=SOLID
1, 2, 3, 4, 5, 6, 7, 8, 9, 10, 11, 12, 13, 14, 15, 16
17, 18, 19, 20, 21, 22, 23, 24, 25, 26, 27, 28
*NSET, NSET=CLAMP
1, 10, 19, 27, 36, 45, 54, 63, 71, 80
*NSET, NSET=TENSION
9, 18, 26, 35, 44, 53, 62, 70, 79, 88
*MATERIAL, NAME=STEEL
*ELASTIC
200000000000, 0.3
*SOLID SECTION, ELSET=SOLID, MATERIAL=STEEL
,
*BOUNDARY
CLAMP, 1, 1, 0
CLAMP, 2, 2, 0
CLAMP, 3, 3, 0
*STEP, NAME=LINEAR_STATIC, NLGEOM=NO
*STATIC
1., 1., 1e-05, 1.
*CLOAD
TENSION, 1, 1000
*OUTPUT, FIELD
*NODE OUTPUT
U, RF
*ELEMENT OUTPUT, DIRECTIONS=YES
S, E
*OUTPUT, HISTORY
*ENERGY OUTPUT
ALLSE
*END STEP
